! Created with skrf 1.12.0 (http://scikit-rf.org).
# Hz S RI R 50.0 
!freq ReS11 ImS11 ReS21 ImS21 ReS12 ImS12 ReS22 ImS22
700000000.0 -1.0 1.2246467991473532e-16 5.4308063022590975e-09 0.0 5.4308063022590975e-09 0.0 -1.0 1.2246467991473532e-16
700087521.88047 -1.0 1.2246467991473532e-16 5.44686487274875e-09 0.0 5.44686487274875e-09 0.0 -1.0 1.2246467991473532e-16
700175043.7609402 -1.0 1.2246467991473532e-16 5.462978015978673e-09 0.0 5.462978015978673e-09 0.0 -1.0 1.2246467991473532e-16
700262565.6414104 -1.0 1.2246467991473532e-16 5.4791459431479104e-09 0.0 5.4791459431479104e-09 0.0 -1.0 1.2246467991473532e-16
700350087.5218804 -1.0 1.2246467991473532e-16 5.495368866376096e-09 0.0 5.495368866376096e-09 0.0 -1.0 1.2246467991473532e-16
700437609.4023505 -1.0 1.2246467991473532e-16 5.511646998708158e-09 0.0 5.511646998708158e-09 0.0 -1.0 1.2246467991473532e-16
700525131.2828207 -1.0 1.2246467991473532e-16 5.5279805541185955e-09 0.0 5.5279805541185955e-09 0.0 -1.0 1.2246467991473532e-16
700612653.1632909 -1.0 1.2246467991473532e-16 5.544369747516168e-09 0.0 5.544369747516168e-09 0.0 -1.0 1.2246467991473532e-16
700700175.0437609 -1.0 1.2246467991473532e-16 5.560814794748285e-09 0.0 5.560814794748285e-09 0.0 -1.0 1.2246467991473532e-16
700787696.924231 -1.0 1.2246467991473532e-16 5.577315912605778e-09 0.0 5.577315912605778e-09 0.0 -1.0 1.2246467991473532e-16
700875218.8047012 -1.0 1.2246467991473532e-16 5.593873318827282e-09 0.0 5.593873318827282e-09 0.0 -1.0 1.2246467991473532e-16
700962740.6851712 -1.0 1.2246467991473532e-16 5.610487232104022e-09 0.0 5.610487232104022e-09 0.0 -1.0 1.2246467991473532e-16
701050262.5656414 -1.0 1.2246467991473532e-16 5.627157872084309e-09 0.0 5.627157872084309e-09 0.0 -1.0 1.2246467991473532e-16
701137784.4461116 -1.0 1.2246467991473532e-16 5.643885459378392e-09 0.0 5.643885459378392e-09 0.0 -1.0 1.2246467991473532e-16
701225306.3265816 -1.0 1.2246467991473532e-16 5.660670215562996e-09 0.0 5.660670215562996e-09 0.0 -1.0 1.2246467991473532e-16
701312828.2070518 -1.0 1.2246467991473532e-16 5.6775123631860875e-09 0.0 5.6775123631860875e-09 0.0 -1.0 1.2246467991473532e-16
701400350.0875219 -1.0 1.2246467991473532e-16 5.694412125771643e-09 0.0 5.694412125771643e-09 0.0 -1.0 1.2246467991473532e-16
701487871.967992 -1.0 1.2246467991473532e-16 5.711369727824439e-09 0.0 5.711369727824439e-09 0.0 -1.0 1.2246467991473532e-16
701575393.8484621 -1.0 1.2246467991473532e-16 5.72838539483484e-09 0.0 5.72838539483484e-09 0.0 -1.0 1.2246467991473532e-16
701662915.7289321 -1.0 1.2246467991473532e-16 5.745459353283498e-09 0.0 5.745459353283498e-09 0.0 -1.0 1.2246467991473532e-16
701750437.6094023 -1.0 1.2246467991473532e-16 5.762591830646431e-09 0.0 5.762591830646431e-09 0.0 -1.0 1.2246467991473532e-16
701837959.4898723 -1.0 1.2246467991473532e-16 5.779783055399694e-09 0.0 5.779783055399694e-09 0.0 -1.0 1.2246467991473532e-16
701925481.3703425 -1.0 1.2246467991473532e-16 5.79703325702439e-09 0.0 5.79703325702439e-09 0.0 -1.0 1.2246467991473532e-16
702013003.2508126 -1.0 1.2246467991473532e-16 5.814342666011578e-09 0.0 5.814342666011578e-09 0.0 -1.0 1.2246467991473532e-16
702100525.1312827 -1.0 1.2246467991473532e-16 5.831711513867188e-09 0.0 5.831711513867188e-09 0.0 -1.0 1.2246467991473532e-16
702188047.0117528 -1.0 1.2246467991473532e-16 5.849140033117075e-09 0.0 5.849140033117075e-09 0.0 -1.0 1.2246467991473532e-16
702275568.892223 -1.0 1.2246467991473532e-16 5.866628457312e-09 0.0 5.866628457312e-09 0.0 -1.0 1.2246467991473532e-16
702363090.7726932 -1.0 1.2246467991473532e-16 5.884177021032569e-09 0.0 5.884177021032569e-09 0.0 -1.0 1.2246467991473532e-16
702450612.6531632 -1.0 1.2246467991473532e-16 5.901785959894495e-09 0.0 5.901785959894495e-09 0.0 -1.0 1.2246467991473532e-16
702538134.5336334 -1.0 1.2246467991473532e-16 5.919455510553502e-09 0.0 5.919455510553502e-09 0.0 -1.0 1.2246467991473532e-16
702625656.4141035 -1.0 1.2246467991473532e-16 5.937185910710557e-09 0.0 5.937185910710557e-09 0.0 -1.0 1.2246467991473532e-16
702713178.2945735 -1.0 1.2246467991473532e-16 5.954977399116954e-09 0.0 5.954977399116954e-09 0.0 -1.0 1.2246467991473532e-16
702800700.1750437 -1.0 1.2246467991473532e-16 5.972830215579506e-09 0.0 5.972830215579506e-09 0.0 -1.0 1.2246467991473532e-16
702888222.0555139 -1.0 1.2246467991473532e-16 5.9907446009658435e-09 0.0 5.9907446009658435e-09 0.0 -1.0 1.2246467991473532e-16
702975743.9359839 -1.0 1.2246467991473532e-16 6.008720797209426e-09 0.0 6.008720797209426e-09 0.0 -1.0 1.2246467991473532e-16
703063265.816454 -1.0 1.2246467991473532e-16 6.026759047315044e-09 0.0 6.026759047315044e-09 0.0 -1.0 1.2246467991473532e-16
703150787.6969242 -1.0 1.2246467991473532e-16 6.044859595363917e-09 0.0 6.044859595363917e-09 0.0 -1.0 1.2246467991473532e-16
703238309.5773942 -1.0 1.2246467991473532e-16 6.063022686519111e-09 0.0 6.063022686519111e-09 0.0 -1.0 1.2246467991473532e-16
703325831.4578644 -1.0 1.2246467991473532e-16 6.081248567030938e-09 0.0 6.081248567030938e-09 0.0 -1.0 1.2246467991473532e-16
703413353.3383346 -1.0 1.2246467991473532e-16 6.099537484242139e-09 0.0 6.099537484242139e-09 0.0 -1.0 1.2246467991473532e-16
703500875.2188047 -1.0 1.2246467991473532e-16 6.117889686593517e-09 0.0 6.117889686593517e-09 0.0 -1.0 1.2246467991473532e-16
703588397.0992748 -1.0 1.2246467991473532e-16 6.136305423629126e-09 0.0 6.136305423629126e-09 0.0 -1.0 1.2246467991473532e-16
703675918.9797449 -1.0 1.2246467991473532e-16 6.154784946002072e-09 0.0 6.154784946002072e-09 0.0 -1.0 1.2246467991473532e-16
703763440.8602151 -1.0 1.2246467991473532e-16 6.173328505479584e-09 0.0 6.173328505479584e-09 0.0 -1.0 1.2246467991473532e-16
703850962.7406851 -1.0 1.2246467991473532e-16 6.191936354948899e-09 0.0 6.191936354948899e-09 0.0 -1.0 1.2246467991473532e-16
703938484.6211553 -1.0 1.2246467991473532e-16 6.210608748422671e-09 0.0 6.210608748422671e-09 0.0 -1.0 1.2246467991473532e-16
704026006.5016254 -1.0 1.2246467991473532e-16 6.229345941044505e-09 0.0 6.229345941044505e-09 0.0 -1.0 1.2246467991473532e-16
704113528.3820955 -1.0 1.2246467991473532e-16 6.248148189094609e-09 0.0 6.248148189094609e-09 0.0 -1.0 1.2246467991473532e-16
704201050.2625656 -1.0 1.2246467991473532e-16 6.2670157499955754e-09 0.0 6.2670157499955754e-09 0.0 -1.0 1.2246467991473532e-16
704288572.1430358 -1.0 1.2246467991473532e-16 6.285948882317856e-09 0.0 6.285948882317856e-09 0.0 -1.0 1.2246467991473532e-16
704376094.0235059 -1.0 1.2246467991473532e-16 6.30494784578559e-09 0.0 6.30494784578559e-09 0.0 -1.0 1.2246467991473532e-16
704463615.903976 -1.0 1.2246467991473532e-16 6.324012901282154e-09 0.0 6.324012901282154e-09 0.0 -1.0 1.2246467991473532e-16
704551137.7844461 -1.0 1.2246467991473532e-16 6.3431443108563905e-09 0.0 6.3431443108563905e-09 0.0 -1.0 1.2246467991473532e-16
704638659.6649163 -1.0 1.2246467991473532e-16 6.362342337727908e-09 0.0 6.362342337727908e-09 0.0 -1.0 1.2246467991473532e-16
704726181.5453863 -1.0 1.2246467991473532e-16 6.3816072462930416e-09 0.0 6.3816072462930416e-09 0.0 -1.0 1.2246467991473532e-16
704813703.4258565 -1.0 1.2246467991473532e-16 6.400939302131041e-09 0.0 6.400939302131041e-09 0.0 -1.0 1.2246467991473532e-16
704901225.3063265 -1.0 1.2246467991473532e-16 6.4203387720094424e-09 0.0 6.4203387720094424e-09 0.0 -1.0 1.2246467991473532e-16
704988747.1867965 -1.0 1.2246467991473532e-16 6.439805923890533e-09 0.0 6.439805923890533e-09 0.0 -1.0 1.2246467991473532e-16
705076269.0672667 -1.0 1.2246467991473532e-16 6.459341026936938e-09 0.0 6.459341026936938e-09 0.0 -1.0 1.2246467991473532e-16
705163790.9477369 -1.0 1.2246467991473532e-16 6.478944351517763e-09 0.0 6.478944351517763e-09 0.0 -1.0 1.2246467991473532e-16
705251312.828207 -1.0 1.2246467991473532e-16 6.498616169214532e-09 0.0 6.498616169214532e-09 0.0 -1.0 1.2246467991473532e-16
705338834.708677 -1.0 1.2246467991473532e-16 6.5183567528274055e-09 0.0 6.5183567528274055e-09 0.0 -1.0 1.2246467991473532e-16
705426356.5891472 -1.0 1.2246467991473532e-16 6.538166376381255e-09 0.0 6.538166376381255e-09 0.0 -1.0 1.2246467991473532e-16
705513878.4696174 -1.0 1.2246467991473532e-16 6.558045315131573e-09 0.0 6.558045315131573e-09 0.0 -1.0 1.2246467991473532e-16
705601400.3500874 -1.0 1.2246467991473532e-16 6.57799384557092e-09 0.0 6.57799384557092e-09 0.0 -1.0 1.2246467991473532e-16
705688922.2305576 -1.0 1.2246467991473532e-16 6.598012245434954e-09 0.0 6.598012245434954e-09 0.0 -1.0 1.2246467991473532e-16
705776444.1110277 -1.0 1.2246467991473532e-16 6.618100793708715e-09 0.0 6.618100793708715e-09 0.0 -1.0 1.2246467991473532e-16
705863965.9914978 -1.0 1.2246467991473532e-16 6.638259770632912e-09 0.0 6.638259770632912e-09 0.0 -1.0 1.2246467991473532e-16
705951487.8719679 -1.0 1.2246467991473532e-16 6.658489457710152e-09 0.0 6.658489457710152e-09 0.0 -1.0 1.2246467991473532e-16
706039009.7524381 -1.0 1.2246467991473532e-16 6.6787901377114204e-09 0.0 6.6787901377114204e-09 0.0 -1.0 1.2246467991473532e-16
706126531.6329082 -1.0 1.2246467991473532e-16 6.699162094682267e-09 0.0 6.699162094682267e-09 0.0 -1.0 1.2246467991473532e-16
706214053.5133783 -1.0 1.2246467991473532e-16 6.719605613949272e-09 0.0 6.719605613949272e-09 0.0 -1.0 1.2246467991473532e-16
706301575.3938484 -1.0 1.2246467991473532e-16 6.740120982126733e-09 0.0 6.740120982126733e-09 0.0 -1.0 1.2246467991473532e-16
706389097.2743186 -1.0 1.2246467991473532e-16 6.760708487122689e-09 0.0 6.760708487122689e-09 0.0 -1.0 1.2246467991473532e-16
706476619.1547886 -1.0 1.2246467991473532e-16 6.78136841814584e-09 0.0 6.78136841814584e-09 0.0 -1.0 1.2246467991473532e-16
706564141.0352588 -1.0 1.2246467991473532e-16 6.8021010657119056e-09 0.0 6.8021010657119056e-09 0.0 -1.0 1.2246467991473532e-16
706651662.9157289 -1.0 1.2246467991473532e-16 6.822906721650207e-09 0.0 6.822906721650207e-09 0.0 -1.0 1.2246467991473532e-16
706739184.796199 -1.0 1.2246467991473532e-16 6.843785679110313e-09 0.0 6.843785679110313e-09 0.0 -1.0 1.2246467991473532e-16
706826706.6766691 -1.0 1.2246467991473532e-16 6.8647382325688816e-09 0.0 6.8647382325688816e-09 0.0 -1.0 1.2246467991473532e-16
706914228.5571393 -1.0 1.2246467991473532e-16 6.885764677836066e-09 0.0 6.885764677836066e-09 0.0 -1.0 1.2246467991473532e-16
707001750.4376094 -1.0 1.2246467991473532e-16 6.906865312062345e-09 0.0 6.906865312062345e-09 0.0 -1.0 1.2246467991473532e-16
707089272.3180795 -1.0 1.2246467991473532e-16 6.9280404337454e-09 0.0 6.9280404337454e-09 0.0 -1.0 1.2246467991473532e-16
707176794.1985496 -1.0 1.2246467991473532e-16 6.949290342736931e-09 0.0 6.949290342736931e-09 0.0 -1.0 1.2246467991473532e-16
707264316.0790198 -1.0 1.2246467991473532e-16 6.9706153402493015e-09 0.0 6.9706153402493015e-09 0.0 -1.0 1.2246467991473532e-16
707351837.9594898 -1.0 1.2246467991473532e-16 6.9920157288626045e-09 0.0 6.9920157288626045e-09 0.0 -1.0 1.2246467991473532e-16
707439359.83996 -1.0 1.2246467991473532e-16 7.013491812531646e-09 0.0 7.013491812531646e-09 0.0 -1.0 1.2246467991473532e-16
707526881.7204301 -1.0 1.2246467991473532e-16 7.035043896592676e-09 0.0 7.035043896592676e-09 0.0 -1.0 1.2246467991473532e-16
707614403.6009002 -1.0 1.2246467991473532e-16 7.05667228777052e-09 0.0 7.05667228777052e-09 0.0 -1.0 1.2246467991473532e-16
707701925.4813703 -1.0 1.2246467991473532e-16 7.078377294185838e-09 0.0 7.078377294185838e-09 0.0 -1.0 1.2246467991473532e-16
707789447.3618405 -1.0 1.2246467991473532e-16 7.100159225361706e-09 0.0 7.100159225361706e-09 0.0 -1.0 1.2246467991473532e-16
707876969.2423105 -1.0 1.2246467991473532e-16 7.122018392231236e-09 0.0 7.122018392231236e-09 0.0 -1.0 1.2246467991473532e-16
707964491.1227807 -1.0 1.2246467991473532e-16 7.143955107144457e-09 0.0 7.143955107144457e-09 0.0 -1.0 1.2246467991473532e-16
708052013.0032508 -1.0 1.2246467991473532e-16 7.165969683875616e-09 0.0 7.165969683875616e-09 0.0 -1.0 1.2246467991473532e-16
708139534.8837209 -1.0 1.2246467991473532e-16 7.188062437630364e-09 0.0 7.188062437630364e-09 0.0 -1.0 1.2246467991473532e-16
708227056.7641909 -1.0 1.2246467991473532e-16 7.21023368505306e-09 0.0 7.21023368505306e-09 0.0 -1.0 1.2246467991473532e-16
708314578.6446611 -1.0 1.2246467991473532e-16 7.232483744234203e-09 0.0 7.232483744234203e-09 0.0 -1.0 1.2246467991473532e-16
708402100.5251312 -1.0 1.2246467991473532e-16 7.254812934717649e-09 0.0 7.254812934717649e-09 0.0 -1.0 1.2246467991473532e-16
708489622.4056013 -1.0 1.2246467991473532e-16 7.277221577507978e-09 0.0 7.277221577507978e-09 0.0 -1.0 1.2246467991473532e-16
708577144.2860714 -1.0 1.2246467991473532e-16 7.299709995078285e-09 0.0 7.299709995078285e-09 0.0 -1.0 1.2246467991473532e-16
708664666.1665416 -1.0 1.2246467991473532e-16 7.322278511377165e-09 0.0 7.322278511377165e-09 0.0 -1.0 1.2246467991473532e-16
708752188.0470117 -1.0 1.2246467991473532e-16 7.34492745183664e-09 0.0 7.34492745183664e-09 0.0 -1.0 1.2246467991473532e-16
708839709.9274818 -1.0 1.2246467991473532e-16 7.367657143379481e-09 0.0 7.367657143379481e-09 0.0 -1.0 1.2246467991473532e-16
708927231.8079519 -1.0 1.2246467991473532e-16 7.39046791442723e-09 0.0 7.39046791442723e-09 0.0 -1.0 1.2246467991473532e-16
709014753.6884221 -1.0 1.2246467991473532e-16 7.4133600949072125e-09 0.0 7.4133600949072125e-09 0.0 -1.0 1.2246467991473532e-16
709102275.5688921 -1.0 1.2246467991473532e-16 7.436334016260824e-09 0.0 7.436334016260824e-09 0.0 -1.0 1.2246467991473532e-16
709189797.4493623 -0.9999999999999999 1.224646799147353e-16 7.459390011451082e-09 0.0 7.459390011451082e-09 0.0 -0.9999999999999999 1.224646799147353e-16
709277319.3298324 -0.9999999999999999 1.224646799147353e-16 7.482528414970239e-09 0.0 7.482528414970239e-09 0.0 -0.9999999999999999 1.224646799147353e-16
709364841.2103025 -0.9999999999999999 1.224646799147353e-16 7.50574956284791e-09 0.0 7.50574956284791e-09 0.0 -0.9999999999999999 1.224646799147353e-16
709452363.0907726 -0.9999999999999999 1.224646799147353e-16 7.52905379265883e-09 0.0 7.52905379265883e-09 0.0 -0.9999999999999999 1.224646799147353e-16
709539884.9712428 -0.9999999999999999 1.224646799147353e-16 7.552441443530666e-09 0.0 7.552441443530666e-09 0.0 -0.9999999999999999 1.224646799147353e-16
709627406.851713 -0.9999999999999999 1.224646799147353e-16 7.575912856152191e-09 0.0 7.575912856152191e-09 0.0 -0.9999999999999999 1.224646799147353e-16
709714928.732183 -0.9999999999999999 1.224646799147353e-16 7.599468372780988e-09 0.0 7.599468372780988e-09 0.0 -0.9999999999999999 1.224646799147353e-16
709802450.6126531 -0.9999999999999999 1.224646799147353e-16 7.623108337252113e-09 0.0 7.623108337252113e-09 0.0 -0.9999999999999999 1.224646799147353e-16
709889972.4931233 -0.9999999999999999 1.224646799147353e-16 7.646833094985486e-09 0.0 7.646833094985486e-09 0.0 -0.9999999999999999 1.224646799147353e-16
709977494.3735933 -0.9999999999999999 1.224646799147353e-16 7.670642992994465e-09 0.0 7.670642992994465e-09 0.0 -0.9999999999999999 1.224646799147353e-16
710065016.2540635 -0.9999999999999999 1.224646799147353e-16 7.694538379893933e-09 0.0 7.694538379893933e-09 0.0 -0.9999999999999999 1.224646799147353e-16
710152538.1345336 -0.9999999999999999 1.224646799147353e-16 7.718519605908619e-09 0.0 7.718519605908619e-09 0.0 -0.9999999999999999 1.224646799147353e-16
710240060.0150037 -0.9999999999999999 1.224646799147353e-16 7.742587022881216e-09 0.0 7.742587022881216e-09 0.0 -0.9999999999999999 1.224646799147353e-16
710327581.8954738 -0.9999999999999999 1.224646799147353e-16 7.766740984280995e-09 0.0 7.766740984280995e-09 0.0 -0.9999999999999999 1.224646799147353e-16
710415103.775944 -0.9999999999999999 1.224646799147353e-16 7.79098184521189e-09 0.0 7.79098184521189e-09 0.0 -0.9999999999999999 1.224646799147353e-16
710502625.656414 -0.9999999999999999 1.224646799147353e-16 7.815309962421061e-09 0.0 7.815309962421061e-09 0.0 -0.9999999999999999 1.224646799147353e-16
710590147.5368842 -0.9999999999999999 1.224646799147353e-16 7.839725694307622e-09 0.0 7.839725694307622e-09 0.0 -0.9999999999999999 1.224646799147353e-16
710677669.4173543 -0.9999999999999999 1.224646799147353e-16 7.864229400930686e-09 0.0 7.864229400930686e-09 0.0 -0.9999999999999999 1.224646799147353e-16
710765191.2978245 -0.9999999999999999 1.224646799147353e-16 7.888821444018222e-09 0.0 7.888821444018222e-09 0.0 -0.9999999999999999 1.224646799147353e-16
710852713.1782945 -0.9999999999999999 1.224646799147353e-16 7.913502186975804e-09 0.0 7.913502186975804e-09 0.0 -0.9999999999999999 1.224646799147353e-16
710940235.0587647 -0.9999999999999999 1.224646799147353e-16 7.93827199489504e-09 0.0 7.93827199489504e-09 0.0 -0.9999999999999999 1.224646799147353e-16
711027756.9392349 -0.9999999999999999 1.224646799147353e-16 7.963131234562482e-09 0.0 7.963131234562482e-09 0.0 -0.9999999999999999 1.224646799147353e-16
711115278.8197049 -0.9999999999999999 1.224646799147353e-16 7.988080274468226e-09 0.0 7.988080274468226e-09 0.0 -0.9999999999999999 1.224646799147353e-16
711202800.700175 -0.9999999999999999 1.224646799147353e-16 8.013119484814958e-09 0.0 8.013119484814958e-09 0.0 -0.9999999999999999 1.224646799147353e-16
711290322.5806452 -0.9999999999999999 1.224646799147353e-16 8.038249237526624e-09 0.0 8.038249237526624e-09 0.0 -0.9999999999999999 1.224646799147353e-16
711377844.4611152 -0.9999999999999999 1.224646799147353e-16 8.063469906257489e-09 0.0 8.063469906257489e-09 0.0 -0.9999999999999999 1.224646799147353e-16
711465366.3415853 -0.9999999999999999 1.224646799147353e-16 8.08878186640112e-09 0.0 8.08878186640112e-09 0.0 -0.9999999999999999 1.224646799147353e-16
711552888.2220554 -0.9999999999999999 1.224646799147353e-16 8.114185495099356e-09 0.0 8.114185495099356e-09 0.0 -0.9999999999999999 1.224646799147353e-16
711640410.1025256 -0.9999999999999999 1.224646799147353e-16 8.139681171251382e-09 0.0 8.139681171251382e-09 0.0 -0.9999999999999999 1.224646799147353e-16
711727931.9829956 -0.9999999999999999 1.224646799147353e-16 8.165269275522919e-09 0.0 8.165269275522919e-09 0.0 -0.9999999999999999 1.224646799147353e-16
711815453.8634658 -0.9999999999999999 1.224646799147353e-16 8.19095019035544e-09 0.0 8.19095019035544e-09 0.0 -0.9999999999999999 1.224646799147353e-16
711902975.743936 -0.9999999999999999 1.224646799147353e-16 8.216724299975313e-09 0.0 8.216724299975313e-09 0.0 -0.9999999999999999 1.224646799147353e-16
711990497.624406 -0.9999999999999999 1.224646799147353e-16 8.242591990403115e-09 0.0 8.242591990403115e-09 0.0 -0.9999999999999999 1.224646799147353e-16
712078019.5048761 -0.9999999999999999 1.224646799147353e-16 8.26855364946314e-09 0.0 8.26855364946314e-09 0.0 -0.9999999999999999 1.224646799147353e-16
712165541.3853463 -0.9999999999999999 1.224646799147353e-16 8.294609666792499e-09 0.0 8.294609666792499e-09 0.0 -0.9999999999999999 1.224646799147353e-16
712253063.2658163 -0.9999999999999999 1.224646799147353e-16 8.320760433850916e-09 0.0 8.320760433850916e-09 0.0 -0.9999999999999999 1.224646799147353e-16
712340585.1462865 -0.9999999999999999 1.224646799147353e-16 8.347006343930059e-09 0.0 8.347006343930059e-09 0.0 -0.9999999999999999 1.224646799147353e-16
712428107.0267566 -0.9999999999999999 1.224646799147353e-16 8.373347792162958e-09 0.0 8.373347792162958e-09 0.0 -0.9999999999999999 1.224646799147353e-16
712515628.9072268 -0.9999999999999999 1.224646799147353e-16 8.399785175533958e-09 0.0 8.399785175533958e-09 0.0 -0.9999999999999999 1.224646799147353e-16
712603150.7876968 -0.9999999999999999 1.224646799147353e-16 8.426318892888127e-09 0.0 8.426318892888127e-09 0.0 -0.9999999999999999 1.224646799147353e-16
712690672.668167 -0.9999999999999999 1.224646799147353e-16 8.452949344941146e-09 0.0 8.452949344941146e-09 0.0 -0.9999999999999999 1.224646799147353e-16
712778194.5486372 -0.9999999999999999 1.224646799147353e-16 8.479676934289027e-09 0.0 8.479676934289027e-09 0.0 -0.9999999999999999 1.224646799147353e-16
712865716.4291072 -0.9999999999999999 1.224646799147353e-16 8.506502065417946e-09 0.0 8.506502065417946e-09 0.0 -0.9999999999999999 1.224646799147353e-16
712953238.3095773 -0.9999999999999999 1.224646799147353e-16 8.533425144714197e-09 0.0 8.533425144714197e-09 0.0 -0.9999999999999999 1.224646799147353e-16
713040760.1900475 -0.9999999999999999 1.224646799147353e-16 8.560446580474122e-09 0.0 8.560446580474122e-09 0.0 -0.9999999999999999 1.224646799147353e-16
713128282.0705175 -0.9999999999999999 1.224646799147353e-16 8.587566782914081e-09 0.0 8.587566782914081e-09 0.0 -0.9999999999999999 1.224646799147353e-16
713215803.9509877 -0.9999999999999999 1.224646799147353e-16 8.614786164180597e-09 0.0 8.614786164180597e-09 0.0 -0.9999999999999999 1.224646799147353e-16
713303325.8314579 -0.9999999999999999 1.224646799147353e-16 8.642105138360489e-09 0.0 8.642105138360489e-09 0.0 -0.9999999999999999 1.224646799147353e-16
713390847.711928 -0.9999999999999999 1.224646799147353e-16 8.669524121491095e-09 0.0 8.669524121491095e-09 0.0 -0.9999999999999999 1.224646799147353e-16
713478369.592398 -0.9999999999999999 1.224646799147353e-16 8.697043531570249e-09 0.0 8.697043531570249e-09 0.0 -0.9999999999999999 1.224646799147353e-16
713565891.4728682 -0.9999999999999999 1.224646799147353e-16 8.724663788567152e-09 0.0 8.724663788567152e-09 0.0 -0.9999999999999999 1.224646799147353e-16
713653413.3533384 -0.9999999999999999 1.224646799147353e-16 8.752385314432111e-09 0.0 8.752385314432111e-09 0.0 -0.9999999999999999 1.224646799147353e-16
713740935.2338084 -0.9999999999999999 1.224646799147353e-16 8.780208533107398e-09 0.0 8.780208533107398e-09 0.0 -0.9999999999999999 1.224646799147353e-16
713828457.1142786 -0.9999999999999999 1.224646799147353e-16 8.808133870537613e-09 0.0 8.808133870537613e-09 0.0 -0.9999999999999999 1.224646799147353e-16
713915978.9947487 -0.9999999999999999 1.224646799147353e-16 8.836161754680216e-09 0.0 8.836161754680216e-09 0.0 -0.9999999999999999 1.224646799147353e-16
714003500.8752187 -0.9999999999999999 1.224646799147353e-16 8.864292615516044e-09 0.0 8.864292615516044e-09 0.0 -0.9999999999999999 1.224646799147353e-16
714091022.7556889 -0.9999999999999999 1.224646799147353e-16 8.892526885060291e-09 0.0 8.892526885060291e-09 0.0 -0.9999999999999999 1.224646799147353e-16
714178544.6361591 -0.9999999999999999 1.224646799147353e-16 8.920864997372953e-09 0.0 8.920864997372953e-09 0.0 -0.9999999999999999 1.224646799147353e-16
714266066.5166292 -0.9999999999999999 1.224646799147353e-16 8.949307388569725e-09 0.0 8.949307388569725e-09 0.0 -0.9999999999999999 1.224646799147353e-16
714353588.3970993 -0.9999999999999999 1.224646799147353e-16 8.977854496832865e-09 0.0 8.977854496832865e-09 0.0 -0.9999999999999999 1.224646799147353e-16
714441110.2775694 -0.9999999999999999 1.224646799147353e-16 9.006506762422251e-09 0.0 9.006506762422251e-09 0.0 -0.9999999999999999 1.224646799147353e-16
714528632.1580396 -0.9999999999999999 1.224646799147353e-16 9.035264627686039e-09 0.0 9.035264627686039e-09 0.0 -0.9999999999999999 1.224646799147353e-16
714616154.0385096 -0.9999999999999999 1.224646799147353e-16 9.064128537072093e-09 0.0 9.064128537072093e-09 0.0 -0.9999999999999999 1.224646799147353e-16
714703675.9189796 -0.9999999999999999 1.224646799147353e-16 9.093098937138854e-09 0.0 9.093098937138854e-09 0.0 -0.9999999999999999 1.224646799147353e-16
714791197.7994498 -0.9999999999999999 1.224646799147353e-16 9.12217627656677e-09 0.0 9.12217627656677e-09 0.0 -0.9999999999999999 1.224646799147353e-16
714878719.6799198 -0.9999999999999999 1.224646799147353e-16 9.151361006169166e-09 0.0 9.151361006169166e-09 0.0 -0.9999999999999999 1.224646799147353e-16
714966241.56039 -0.9999999999999999 1.224646799147353e-16 9.180653578903986e-09 0.0 9.180653578903986e-09 0.0 -0.9999999999999999 1.224646799147353e-16
715053763.4408602 -0.9999999999999999 1.224646799147353e-16 9.210054449884798e-09 0.0 9.210054449884798e-09 0.0 -0.9999999999999999 1.224646799147353e-16
715141285.3213303 -0.9999999999999999 1.224646799147353e-16 9.239564076392585e-09 0.0 9.239564076392585e-09 0.0 -0.9999999999999999 1.224646799147353e-16
715228807.2018003 -0.9999999999999999 1.224646799147353e-16 9.269182917886954e-09 0.0 9.269182917886954e-09 0.0 -0.9999999999999999 1.224646799147353e-16
715316329.0822705 -0.9999999999999999 1.224646799147353e-16 9.29891143601799e-09 0.0 9.29891143601799e-09 0.0 -0.9999999999999999 1.224646799147353e-16
715403850.9627407 -0.9999999999999999 1.224646799147353e-16 9.328750094637734e-09 0.0 9.328750094637734e-09 0.0 -0.9999999999999999 1.224646799147353e-16
715491372.8432107 -0.9999999999999999 1.224646799147353e-16 9.358699359811934e-09 0.0 9.358699359811934e-09 0.0 -0.9999999999999999 1.224646799147353e-16
715578894.7236809 -0.9999999999999999 1.224646799147353e-16 9.388759699831905e-09 0.0 9.388759699831905e-09 0.0 -0.9999999999999999 1.224646799147353e-16
715666416.604151 -0.9999999999999999 1.224646799147353e-16 9.418931585226382e-09 0.0 9.418931585226382e-09 0.0 -0.9999999999999999 1.224646799147353e-16
715753938.484621 -0.9999999999999999 1.224646799147353e-16 9.449215488773204e-09 0.0 9.449215488773204e-09 0.0 -0.9999999999999999 1.224646799147353e-16
715841460.3650912 -0.9999999999999999 1.224646799147353e-16 9.479611885511826e-09 0.0 9.479611885511826e-09 0.0 -0.9999999999999999 1.224646799147353e-16
715928982.2455614 -0.9999999999999999 1.224646799147353e-16 9.510121252754905e-09 0.0 9.510121252754905e-09 0.0 -0.9999999999999999 1.224646799147353e-16
716016504.1260315 -0.9999999999999999 1.224646799147353e-16 9.540744070100548e-09 0.0 9.540744070100548e-09 0.0 -0.9999999999999999 1.224646799147353e-16
716104026.0065016 -0.9999999999999999 1.224646799147353e-16 9.571480819444738e-09 0.0 9.571480819444738e-09 0.0 -0.9999999999999999 1.224646799147353e-16
716191547.8869717 -0.9999999999999999 1.224646799147353e-16 9.60233198499351e-09 0.0 9.60233198499351e-09 0.0 -0.9999999999999999 1.224646799147353e-16
716279069.7674419 -0.9999999999999999 1.224646799147353e-16 9.633298053275105e-09 0.0 9.633298053275105e-09 0.0 -0.9999999999999999 1.224646799147353e-16
716366591.6479119 -0.9999999999999999 1.224646799147353e-16 9.664379513152784e-09 0.0 9.664379513152784e-09 0.0 -0.9999999999999999 1.224646799147353e-16
716454113.5283821 -0.9999999999999999 1.224646799147353e-16 9.695576855837023e-09 0.0 9.695576855837023e-09 0.0 -0.9999999999999999 1.224646799147353e-16
716541635.4088522 -0.9999999999999999 1.224646799147353e-16 9.72689057489818e-09 0.0 9.72689057489818e-09 0.0 -0.9999999999999999 1.224646799147353e-16
716629157.2893223 -0.9999999999999999 1.224646799147353e-16 9.758321166279116e-09 0.0 9.758321166279116e-09 0.0 -0.9999999999999999 1.224646799147353e-16
716716679.1697924 -0.9999999999999999 1.224646799147353e-16 9.789869128308152e-09 0.0 9.789869128308152e-09 0.0 -0.9999999999999999 1.224646799147353e-16
716804201.0502626 -0.9999999999999999 1.224646799147353e-16 9.821534961711594e-09 0.0 9.821534961711594e-09 0.0 -0.9999999999999999 1.224646799147353e-16
716891722.9307326 -0.9999999999999999 1.224646799147353e-16 9.853319169626608e-09 0.0 9.853319169626608e-09 0.0 -0.9999999999999999 1.224646799147353e-16
716979244.8112028 -0.9999999999999999 1.224646799147353e-16 9.885222257614472e-09 0.0 9.885222257614472e-09 0.0 -0.9999999999999999 1.224646799147353e-16
717066766.6916729 -0.9999999999999999 1.224646799147353e-16 9.917244733673337e-09 0.0 9.917244733673337e-09 0.0 -0.9999999999999999 1.224646799147353e-16
717154288.5721431 -0.9999999999999999 1.224646799147353e-16 9.949387108251429e-09 0.0 9.949387108251429e-09 0.0 -0.9999999999999999 1.224646799147353e-16
717241810.4526131 -0.9999999999999999 1.224646799147353e-16 9.98164989426005e-09 0.0 9.98164989426005e-09 0.0 -0.9999999999999999 1.224646799147353e-16
717329332.3330833 -0.9999999999999999 1.224646799147353e-16 1.0014033607087408e-08 0.0 1.0014033607087408e-08 0.0 -0.9999999999999999 1.224646799147353e-16
717416854.2135534 -0.9999999999999999 1.224646799147353e-16 1.0046538764611348e-08 0.0 1.0046538764611348e-08 0.0 -0.9999999999999999 1.224646799147353e-16
717504376.0940235 -0.9999999999999999 1.224646799147353e-16 1.0079165887212845e-08 0.0 1.0079165887212845e-08 0.0 -0.9999999999999999 1.224646799147353e-16
717591897.9744936 -0.9999999999999999 1.224646799147353e-16 1.0111915497790037e-08 0.0 1.0111915497790037e-08 0.0 -0.9999999999999999 1.224646799147353e-16
717679419.8549638 -0.9999999999999999 1.224646799147353e-16 1.0144788121771254e-08 0.0 1.0144788121771254e-08 0.0 -0.9999999999999999 1.224646799147353e-16
717766941.7354338 -0.9999999999999999 1.224646799147353e-16 1.0177784287128874e-08 0.0 1.0177784287128874e-08 0.0 -0.9999999999999999 1.224646799147353e-16
717854463.6159039 -0.9999999999999999 1.224646799147353e-16 1.0210904524393117e-08 0.0 1.0210904524393117e-08 0.0 -0.9999999999999999 1.224646799147353e-16
717941985.496374 -0.9999999999999999 1.224646799147353e-16 1.0244149366665836e-08 0.0 1.0244149366665836e-08 0.0 -0.9999999999999999 1.224646799147353e-16
718029507.3768442 -0.9999999999999999 1.224646799147353e-16 1.0277519349634505e-08 0.0 1.0277519349634505e-08 0.0 -0.9999999999999999 1.224646799147353e-16
718117029.2573142 -0.9999999999999999 1.224646799147353e-16 1.0311015011586003e-08 0.0 1.0311015011586003e-08 0.0 -0.9999999999999999 1.224646799147353e-16
718204551.1377844 -0.9999999999999999 1.224646799147353e-16 1.0344636893420916e-08 0.0 1.0344636893420916e-08 0.0 -0.9999999999999999 1.224646799147353e-16
718292073.0182545 -0.9999999999999999 1.224646799147353e-16 1.037838553866769e-08 0.0 1.037838553866769e-08 0.0 -0.9999999999999999 1.224646799147353e-16
718379594.8987246 -0.9999999999999999 1.224646799147353e-16 1.041226149349669e-08 0.0 1.041226149349669e-08 0.0 -0.9999999999999999 1.224646799147353e-16
718467116.7791947 -0.9999999999999999 1.224646799147353e-16 1.0446265306734797e-08 0.0 1.0446265306734797e-08 0.0 -0.9999999999999999 1.224646799147353e-16
718554638.6596649 -0.9999999999999999 1.224646799147353e-16 1.0480397529879593e-08 0.0 1.0480397529879593e-08 0.0 -0.9999999999999999 1.224646799147353e-16
718642160.540135 -0.9999999999999999 1.224646799147353e-16 1.051465871711405e-08 0.0 1.051465871711405e-08 0.0 -0.9999999999999999 1.224646799147353e-16
718729682.4206051 -0.9999999999999999 1.224646799147353e-16 1.0549049425320867e-08 0.0 1.0549049425320867e-08 0.0 -0.9999999999999999 1.224646799147353e-16
718817204.3010752 -0.9999999999999999 1.224646799147353e-16 1.0583570214097619e-08 0.0 1.0583570214097619e-08 0.0 -0.9999999999999999 1.224646799147353e-16
718904726.1815454 -0.9999999999999999 1.224646799147353e-16 1.0618221645771036e-08 0.0 1.0618221645771036e-08 0.0 -0.9999999999999999 1.224646799147353e-16
718992248.0620154 -0.9999999999999999 1.224646799147353e-16 1.0653004285412064e-08 0.0 1.0653004285412064e-08 0.0 -0.9999999999999999 1.224646799147353e-16
719079769.9424856 -0.9999999999999999 1.224646799147353e-16 1.0687918700851033e-08 0.0 1.0687918700851033e-08 0.0 -0.9999999999999999 1.224646799147353e-16
719167291.8229557 -0.9999999999999999 1.224646799147353e-16 1.0722965462692197e-08 0.0 1.0722965462692197e-08 0.0 -0.9999999999999999 1.224646799147353e-16
719254813.7034258 -0.9999999999999999 1.224646799147353e-16 1.0758145144329326e-08 0.0 1.0758145144329326e-08 0.0 -0.9999999999999999 1.224646799147353e-16
719342335.5838959 -0.9999999999999999 1.224646799147353e-16 1.0793458321960815e-08 0.0 1.0793458321960815e-08 0.0 -0.9999999999999999 1.224646799147353e-16
719429857.4643661 -0.9999999999999999 1.224646799147353e-16 1.0828905574604669e-08 0.0 1.0828905574604669e-08 0.0 -0.9999999999999999 1.224646799147353e-16
719517379.3448361 -0.9999999999999999 1.224646799147353e-16 1.0864487484114506e-08 0.0 1.0864487484114506e-08 0.0 -0.9999999999999999 1.224646799147353e-16
719604901.2253063 -0.9999999999999999 1.224646799147353e-16 1.0900204635194506e-08 0.0 1.0900204635194506e-08 0.0 -0.9999999999999999 1.224646799147353e-16
719692423.1057764 -0.9999999999999999 1.224646799147353e-16 1.0936057615415208e-08 0.0 1.0936057615415208e-08 0.0 -0.9999999999999999 1.224646799147353e-16
719779944.9862466 -0.9999999999999999 1.224646799147353e-16 1.0972047015229355e-08 0.0 1.0972047015229355e-08 0.0 -0.9999999999999999 1.224646799147353e-16
719867466.8667166 -0.9999999999999999 1.224646799147353e-16 1.1008173427987437e-08 0.0 1.1008173427987437e-08 0.0 -0.9999999999999999 1.224646799147353e-16
719954988.7471868 -0.9999999999999999 1.224646799147353e-16 1.1044437449953699e-08 0.0 1.1044437449953699e-08 0.0 -0.9999999999999999 1.224646799147353e-16
720042510.6276569 -0.9999999999999999 1.224646799147353e-16 1.1080839680322067e-08 0.0 1.1080839680322067e-08 0.0 -0.9999999999999999 1.224646799147353e-16
720130032.508127 -0.9999999999999999 1.224646799147353e-16 1.1117380721232181e-08 0.0 1.1117380721232181e-08 0.0 -0.9999999999999999 1.224646799147353e-16
720217554.3885971 -0.9999999999999999 1.224646799147353e-16 1.1154061177785697e-08 0.0 1.1154061177785697e-08 0.0 -0.9999999999999999 1.224646799147353e-16
720305076.2690673 -0.9999999999999999 1.224646799147353e-16 1.1190881658062497e-08 0.0 1.1190881658062497e-08 0.0 -0.9999999999999999 1.224646799147353e-16
720392598.1495373 -0.9999999999999999 1.224646799147353e-16 1.1227842773136743e-08 0.0 1.1227842773136743e-08 0.0 -0.9999999999999999 1.224646799147353e-16
720480120.0300075 -0.9999999999999999 1.224646799147353e-16 1.126494513709409e-08 0.0 1.126494513709409e-08 0.0 -0.9999999999999999 1.224646799147353e-16
720567641.9104776 -0.9999999999999999 1.224646799147353e-16 1.1302189367047358e-08 0.0 1.1302189367047358e-08 0.0 -0.9999999999999999 1.224646799147353e-16
720655163.7909478 -0.9999999999999999 1.224646799147353e-16 1.1339576083153876e-08 0.0 1.1339576083153876e-08 0.0 -0.9999999999999999 1.224646799147353e-16
720742685.6714178 -0.9999999999999999 1.224646799147353e-16 1.1377105908631776e-08 0.0 1.1377105908631776e-08 0.0 -0.9999999999999999 1.224646799147353e-16
720830207.551888 -0.9999999999999999 1.224646799147353e-16 1.141477946977729e-08 0.0 1.141477946977729e-08 0.0 -0.9999999999999999 1.224646799147353e-16
720917729.4323581 -0.9999999999999999 1.224646799147353e-16 1.1452597395981442e-08 0.0 1.1452597395981442e-08 0.0 -0.9999999999999999 1.224646799147353e-16
721005251.3128282 -0.9999999999999999 1.224646799147353e-16 1.149056031974705e-08 0.0 1.149056031974705e-08 0.0 -0.9999999999999999 1.224646799147353e-16
721092773.1932983 -0.9999999999999999 1.224646799147353e-16 1.152866887670633e-08 0.0 1.152866887670633e-08 0.0 -0.9999999999999999 1.224646799147353e-16
721180295.0737684 -0.9999999999999999 1.224646799147353e-16 1.1566923705637551e-08 0.0 1.1566923705637551e-08 0.0 -0.9999999999999999 1.224646799147353e-16
721267816.9542384 -0.9999999999999999 1.224646799147353e-16 1.1605325448483049e-08 0.0 1.1605325448483049e-08 0.0 -0.9999999999999999 1.224646799147353e-16
721355338.8347086 -0.9999999999999999 1.224646799147353e-16 1.1643874750366253e-08 0.0 1.1643874750366253e-08 0.0 -0.9999999999999999 1.224646799147353e-16
721442860.7151787 -0.9999999999999999 1.224646799147353e-16 1.1682572259609664e-08 0.0 1.1682572259609664e-08 0.0 -0.9999999999999999 1.224646799147353e-16
721530382.5956489 -0.9999999999999999 1.224646799147353e-16 1.1721418627752114e-08 0.0 1.1721418627752114e-08 0.0 -0.9999999999999999 1.224646799147353e-16
721617904.4761189 -0.9999999999999999 1.224646799147353e-16 1.1760414509566976e-08 0.0 1.1760414509566976e-08 0.0 -0.9999999999999999 1.224646799147353e-16
721705426.3565891 -0.9999999999999999 1.224646799147353e-16 1.1799560563080061e-08 0.0 1.1799560563080061e-08 0.0 -0.9999999999999999 1.224646799147353e-16
721792948.2370592 -0.9999999999999999 1.224646799147353e-16 1.1838857449587403e-08 0.0 1.1838857449587403e-08 0.0 -0.9999999999999999 1.224646799147353e-16
721880470.1175293 -0.9999999999999999 1.224646799147353e-16 1.187830583367359e-08 0.0 1.187830583367359e-08 0.0 -0.9999999999999999 1.224646799147353e-16
721967991.9979994 -0.9999999999999999 1.224646799147353e-16 1.191790638323009e-08 0.0 1.191790638323009e-08 0.0 -0.9999999999999999 1.224646799147353e-16
722055513.8784696 -0.9999999999999999 1.224646799147353e-16 1.1957659769473349e-08 0.0 1.1957659769473349e-08 0.0 -0.9999999999999999 1.224646799147353e-16
722143035.7589396 -0.9999999999999999 1.224646799147353e-16 1.1997566666963596e-08 0.0 1.1997566666963596e-08 0.0 -0.9999999999999999 1.224646799147353e-16
722230557.6394098 -0.9999999999999999 1.224646799147353e-16 1.2037627753623198e-08 0.0 1.2037627753623198e-08 0.0 -0.9999999999999999 1.224646799147353e-16
722318079.5198799 -0.9999999999999999 1.224646799147353e-16 1.2077843710755542e-08 0.0 1.2077843710755542e-08 0.0 -0.9999999999999999 1.224646799147353e-16
722405601.4003501 -0.9999999999999999 1.224646799147353e-16 1.2118215223063786e-08 0.0 1.2118215223063786e-08 0.0 -0.9999999999999999 1.224646799147353e-16
722493123.2808201 -0.9999999999999999 1.224646799147353e-16 1.2158742978669645e-08 0.0 1.2158742978669645e-08 0.0 -0.9999999999999999 1.224646799147353e-16
722580645.1612903 -0.9999999999999999 1.224646799147353e-16 1.2199427669132777e-08 0.0 1.2199427669132777e-08 0.0 -0.9999999999999999 1.224646799147353e-16
722668167.0417604 -0.9999999999999999 1.224646799147353e-16 1.2240269989469798e-08 0.0 1.2240269989469798e-08 0.0 -0.9999999999999999 1.224646799147353e-16
722755688.9222305 -0.9999999999999999 1.224646799147353e-16 1.2281270638173447e-08 0.0 1.2281270638173447e-08 0.0 -0.9999999999999999 1.224646799147353e-16
722843210.8027006 -0.9999999999999999 1.224646799147353e-16 1.2322430317232208e-08 0.0 1.2322430317232208e-08 0.0 -0.9999999999999999 1.224646799147353e-16
722930732.6831708 -0.9999999999999999 1.224646799147353e-16 1.2363749732149849e-08 0.0 1.2363749732149849e-08 0.0 -0.9999999999999999 1.224646799147353e-16
723018254.5636408 -0.9999999999999999 1.224646799147353e-16 1.2405229591964732e-08 0.0 1.2405229591964732e-08 0.0 -0.9999999999999999 1.224646799147353e-16
723105776.444111 -0.9999999999999999 1.224646799147353e-16 1.2446870609270186e-08 0.0 1.2446870609270186e-08 0.0 -0.9999999999999999 1.224646799147353e-16
723193298.3245811 -0.9999999999999999 1.224646799147353e-16 1.2488673500233705e-08 0.0 1.2488673500233705e-08 0.0 -0.9999999999999999 1.224646799147353e-16
723280820.2050513 -0.9999999999999999 1.224646799147353e-16 1.2530638984617601e-08 0.0 1.2530638984617601e-08 0.0 -0.9999999999999999 1.224646799147353e-16
723368342.0855213 -0.9999999999999999 1.224646799147353e-16 1.2572767785798722e-08 0.0 1.2572767785798722e-08 0.0 -0.9999999999999999 1.224646799147353e-16
723455863.9659915 -0.9999999999999999 1.224646799147353e-16 1.2615060630789084e-08 0.0 1.2615060630789084e-08 0.0 -0.9999999999999999 1.224646799147353e-16
723543385.8464617 -0.9999999999999999 1.224646799147353e-16 1.2657518250255841e-08 0.0 1.2657518250255841e-08 0.0 -0.9999999999999999 1.224646799147353e-16
723630907.7269317 -0.9999999999999999 1.224646799147353e-16 1.2700141378542126e-08 0.0 1.2700141378542126e-08 0.0 -0.9999999999999999 1.224646799147353e-16
723718429.6074018 -0.9999999999999999 1.224646799147353e-16 1.2742930753687661e-08 0.0 1.2742930753687661e-08 0.0 -0.9999999999999999 1.224646799147353e-16
723805951.487872 -0.9999999999999999 1.224646799147353e-16 1.2785887117449428e-08 0.0 1.2785887117449428e-08 0.0 -0.9999999999999999 1.224646799147353e-16
723893473.368342 -0.9999999999999999 1.224646799147353e-16 1.2829011215322608e-08 0.0 1.2829011215322608e-08 0.0 -0.9999999999999999 1.224646799147353e-16
723980995.2488122 -0.9999999999999999 1.224646799147353e-16 1.2872303796561746e-08 0.0 1.2872303796561746e-08 0.0 -0.9999999999999999 1.224646799147353e-16
724068517.1292824 -0.9999999999999999 1.224646799147353e-16 1.291576561420167e-08 0.0 1.291576561420167e-08 0.0 -0.9999999999999999 1.224646799147353e-16
724156039.0097524 -0.9999999999999999 1.224646799147353e-16 1.295939742507906e-08 0.0 1.295939742507906e-08 0.0 -0.9999999999999999 1.224646799147353e-16
724243560.8902225 -0.9999999999999999 1.224646799147353e-16 1.300319998985373e-08 0.0 1.300319998985373e-08 0.0 -0.9999999999999999 1.224646799147353e-16
724331082.7706926 -0.9999999999999999 1.224646799147353e-16 1.304717407303025e-08 0.0 1.304717407303025e-08 0.0 -0.9999999999999999 1.224646799147353e-16
724418604.6511627 -0.9999999999999999 1.224646799147353e-16 1.3091320442979579e-08 0.0 1.3091320442979579e-08 0.0 -0.9999999999999999 1.224646799147353e-16
724506126.5316328 -0.9999999999999999 1.224646799147353e-16 1.3135639871960849e-08 0.0 1.3135639871960849e-08 0.0 -0.9999999999999999 1.224646799147353e-16
724593648.4121029 -0.9999999999999999 1.224646799147353e-16 1.3180133136143758e-08 0.0 1.3180133136143758e-08 0.0 -0.9999999999999999 1.224646799147353e-16
724681170.2925731 -0.9999999999999999 1.224646799147353e-16 1.3224801015630144e-08 0.0 1.3224801015630144e-08 0.0 -0.9999999999999999 1.224646799147353e-16
724768692.1730431 -0.9999999999999999 1.224646799147353e-16 1.3269644294476321e-08 0.0 1.3269644294476321e-08 0.0 -0.9999999999999999 1.224646799147353e-16
724856214.0535133 -0.9999999999999999 1.224646799147353e-16 1.3314663760715852e-08 0.0 1.3314663760715852e-08 0.0 -0.9999999999999999 1.224646799147353e-16
724943735.9339834 -0.9999999999999999 1.224646799147353e-16 1.3359860206381752e-08 0.0 1.3359860206381752e-08 0.0 -0.9999999999999999 1.224646799147353e-16
725031257.8144536 -0.9999999999999999 1.224646799147353e-16 1.3405234427529067e-08 0.0 1.3405234427529067e-08 0.0 -0.9999999999999999 1.224646799147353e-16
725118779.6949236 -0.9999999999999999 1.224646799147353e-16 1.345078722425812e-08 0.0 1.345078722425812e-08 0.0 -0.9999999999999999 1.224646799147353e-16
725206301.5753938 -0.9999999999999999 1.224646799147353e-16 1.349651940073689e-08 0.0 1.349651940073689e-08 0.0 -0.9999999999999999 1.224646799147353e-16
725293823.455864 -0.9999999999999999 1.224646799147353e-16 1.3542431765224738e-08 0.0 1.3542431765224738e-08 0.0 -0.9999999999999999 1.224646799147353e-16
725381345.336334 -0.9999999999999999 1.224646799147353e-16 1.3588525130095045e-08 0.0 1.3588525130095045e-08 0.0 -0.9999999999999999 1.224646799147353e-16
725468867.2168041 -0.9999999999999999 1.224646799147353e-16 1.3634800311859014e-08 0.0 1.3634800311859014e-08 0.0 -0.9999999999999999 1.224646799147353e-16
725556389.0972743 -0.9999999999999999 1.224646799147353e-16 1.3681258131189217e-08 0.0 1.3681258131189217e-08 0.0 -0.9999999999999999 1.224646799147353e-16
725643910.9777443 -0.9999999999999999 1.224646799147353e-16 1.372789941294271e-08 0.0 1.372789941294271e-08 0.0 -0.9999999999999999 1.224646799147353e-16
725731432.8582145 -0.9999999999999999 1.224646799147353e-16 1.377472498618583e-08 0.0 1.377472498618583e-08 0.0 -0.9999999999999999 1.224646799147353e-16
725818954.7386847 -0.9999999999999999 1.224646799147353e-16 1.3821735684217303e-08 0.0 1.3821735684217303e-08 0.0 -0.9999999999999999 1.224646799147353e-16
725906476.6191547 -0.9999999999999999 1.224646799147353e-16 1.3868932344592723e-08 0.0 1.3868932344592723e-08 0.0 -0.9999999999999999 1.224646799147353e-16
725993998.4996248 -0.9999999999999999 1.224646799147353e-16 1.3916315809149137e-08 0.0 1.3916315809149137e-08 0.0 -0.9999999999999999 1.224646799147353e-16
726081520.380095 -0.9999999999999999 1.224646799147353e-16 1.3963886924028838e-08 0.0 1.3963886924028838e-08 0.0 -0.9999999999999999 1.224646799147353e-16
726169042.2605652 -0.9999999999999999 1.224646799147353e-16 1.4011646539704406e-08 0.0 1.4011646539704406e-08 0.0 -0.9999999999999999 1.224646799147353e-16
726256564.1410352 -0.9999999999999999 1.224646799147353e-16 1.4059595511003514e-08 0.0 1.4059595511003514e-08 0.0 -0.9999999999999999 1.224646799147353e-16
726344086.0215054 -0.9999999999999999 1.224646799147353e-16 1.410773469713347e-08 0.0 1.410773469713347e-08 0.0 -0.9999999999999999 1.224646799147353e-16
726431607.9019755 -0.9999999999999999 1.224646799147353e-16 1.4156064961706784e-08 0.0 1.4156064961706784e-08 0.0 -0.9999999999999999 1.224646799147353e-16
726519129.7824455 -0.9999999999999999 1.224646799147353e-16 1.42045871727657e-08 0.0 1.42045871727657e-08 0.0 -0.9999999999999999 1.224646799147353e-16
726606651.6629157 -0.9999999999999999 1.224646799147353e-16 1.42533022028084e-08 0.0 1.42533022028084e-08 0.0 -0.9999999999999999 1.224646799147353e-16
726694173.5433859 -0.9999999999999999 1.224646799147353e-16 1.4302210928813823e-08 0.0 1.4302210928813823e-08 0.0 -0.9999999999999999 1.224646799147353e-16
726781695.4238559 -0.9999999999999999 1.224646799147353e-16 1.4351314232267733e-08 0.0 1.4351314232267733e-08 0.0 -0.9999999999999999 1.224646799147353e-16
726869217.304326 -0.9999999999999999 1.224646799147353e-16 1.440061299918872e-08 0.0 1.440061299918872e-08 0.0 -0.9999999999999999 1.224646799147353e-16
726956739.1847962 -0.9999999999999999 1.224646799147353e-16 1.4450108120153837e-08 0.0 1.4450108120153837e-08 0.0 -0.9999999999999999 1.224646799147353e-16
727044261.0652664 -0.9999999999999999 1.224646799147353e-16 1.4499800490325076e-08 0.0 1.4499800490325076e-08 0.0 -0.9999999999999999 1.224646799147353e-16
727131782.9457364 -0.9999999999999999 1.224646799147353e-16 1.4549691009475606e-08 0.0 1.4549691009475606e-08 0.0 -0.9999999999999999 1.224646799147353e-16
727219304.8262066 -0.9999999999999999 1.224646799147353e-16 1.4599780582016402e-08 0.0 1.4599780582016402e-08 0.0 -0.9999999999999999 1.224646799147353e-16
727306826.7066767 -0.9999999999999999 1.224646799147353e-16 1.4650070117023105e-08 0.0 1.4650070117023105e-08 0.0 -0.9999999999999999 1.224646799147353e-16
727394348.5871468 -0.9999999999999999 1.224646799147353e-16 1.4700560528262197e-08 0.0 1.4700560528262197e-08 0.0 -0.9999999999999999 1.224646799147353e-16
727481870.4676169 -0.9999999999999999 1.224646799147353e-16 1.4751252734219139e-08 0.0 1.4751252734219139e-08 0.0 -0.9999999999999999 1.224646799147353e-16
727569392.3480871 -0.9999999999999999 1.224646799147353e-16 1.4802147658124464e-08 0.0 1.4802147658124464e-08 0.0 -0.9999999999999999 1.224646799147353e-16
727656914.228557 -0.9999999999999999 1.224646799147353e-16 1.4853246227981957e-08 0.0 1.4853246227981957e-08 0.0 -0.9999999999999999 1.224646799147353e-16
727744436.1090271 -0.9999999999999999 1.224646799147353e-16 1.4904549376596048e-08 0.0 1.4904549376596048e-08 0.0 -0.9999999999999999 1.224646799147353e-16
727831957.9894973 -0.9999999999999999 1.224646799147353e-16 1.4956058041599267e-08 0.0 1.4956058041599267e-08 0.0 -0.9999999999999999 1.224646799147353e-16
727919479.8699675 -0.9999999999999999 1.224646799147353e-16 1.5007773165480206e-08 0.0 1.5007773165480206e-08 0.0 -0.9999999999999999 1.224646799147353e-16
728007001.7504375 -0.9999999999999999 1.224646799147353e-16 1.5059695695612083e-08 0.0 1.5059695695612083e-08 0.0 -0.9999999999999999 1.224646799147353e-16
728094523.6309077 -0.9999999999999999 1.224646799147353e-16 1.5111826584280575e-08 0.0 1.5111826584280575e-08 0.0 -0.9999999999999999 1.224646799147353e-16
728182045.5113778 -0.9999999999999999 1.224646799147353e-16 1.5164166788712257e-08 0.0 1.5164166788712257e-08 0.0 -0.9999999999999999 1.224646799147353e-16
728269567.3918478 -0.9999999999999999 1.224646799147353e-16 1.5216717271103452e-08 0.0 1.5216717271103452e-08 0.0 -0.9999999999999999 1.224646799147353e-16
728357089.272318 -0.9999999999999999 1.224646799147353e-16 1.526947899864902e-08 0.0 1.526947899864902e-08 0.0 -0.9999999999999999 1.224646799147353e-16
728444611.1527882 -0.9999999999999999 1.224646799147353e-16 1.5322452943571312e-08 0.0 1.5322452943571312e-08 0.0 -0.9999999999999999 1.224646799147353e-16
728532133.0332582 -0.9999999999999999 1.224646799147353e-16 1.5375640083149174e-08 0.0 1.5375640083149174e-08 0.0 -0.9999999999999999 1.224646799147353e-16
728619654.9137284 -0.9999999999999999 1.224646799147353e-16 1.5429041399747805e-08 0.0 1.5429041399747805e-08 0.0 -0.9999999999999999 1.224646799147353e-16
728707176.7941985 -0.9999999999999999 1.224646799147353e-16 1.5482657880847873e-08 0.0 1.5482657880847873e-08 0.0 -0.9999999999999999 1.224646799147353e-16
728794698.6746687 -0.9999999999999999 1.224646799147353e-16 1.5536490519075417e-08 0.0 1.5536490519075417e-08 0.0 -0.9999999999999999 1.224646799147353e-16
728882220.5551387 -0.9999999999999999 1.224646799147353e-16 1.5590540312231885e-08 0.0 1.5590540312231885e-08 0.0 -0.9999999999999999 1.224646799147353e-16
728969742.4356089 -0.9999999999999999 1.224646799147353e-16 1.5644808263324217e-08 0.0 1.5644808263324217e-08 0.0 -0.9999999999999999 1.224646799147353e-16
729057264.316079 -0.9999999999999999 1.224646799147353e-16 1.5699295380595255e-08 0.0 1.5699295380595255e-08 0.0 -0.9999999999999999 1.224646799147353e-16
729144786.196549 -0.9999999999999999 1.224646799147353e-16 1.5754002677553835e-08 0.0 1.5754002677553835e-08 0.0 -0.9999999999999999 1.224646799147353e-16
729232308.0770192 -0.9999999999999999 1.224646799147353e-16 1.580893117300636e-08 0.0 1.580893117300636e-08 0.0 -0.9999999999999999 1.224646799147353e-16
729319829.9574894 -0.9999999999999999 1.224646799147353e-16 1.5864081891087063e-08 0.0 1.5864081891087063e-08 0.0 -0.9999999999999999 1.224646799147353e-16
729407351.8379594 -0.9999999999999999 1.224646799147353e-16 1.5919455861289148e-08 0.0 1.5919455861289148e-08 0.0 -0.9999999999999999 1.224646799147353e-16
729494873.7184296 -0.9999999999999999 1.224646799147353e-16 1.5975054118496554e-08 0.0 1.5975054118496554e-08 0.0 -0.9999999999999999 1.224646799147353e-16
729582395.5988997 -0.9999999999999999 1.224646799147353e-16 1.6030877703015016e-08 0.0 1.6030877703015016e-08 0.0 -0.9999999999999999 1.224646799147353e-16
729669917.4793699 -0.9999999999999999 1.224646799147353e-16 1.608692766060422e-08 0.0 1.608692766060422e-08 0.0 -0.9999999999999999 1.224646799147353e-16
729757439.3598399 -0.9999999999999999 1.224646799147353e-16 1.614320504250933e-08 0.0 1.614320504250933e-08 0.0 -0.9999999999999999 1.224646799147353e-16
729844961.2403101 -0.9999999999999999 1.224646799147353e-16 1.6199710905493566e-08 0.0 1.6199710905493566e-08 0.0 -0.9999999999999999 1.224646799147353e-16
729932483.1207802 -0.9999999999999999 1.224646799147353e-16 1.6256446311870063e-08 0.0 1.6256446311870063e-08 0.0 -0.9999999999999999 1.224646799147353e-16
730020005.0012503 -0.9999999999999999 1.224646799147353e-16 1.631341232953478e-08 0.0 1.631341232953478e-08 0.0 -0.9999999999999999 1.224646799147353e-16
730107526.8817204 -0.9999999999999999 1.224646799147353e-16 1.6370610031999508e-08 0.0 1.6370610031999508e-08 0.0 -0.9999999999999999 1.224646799147353e-16
730195048.7621906 -0.9999999999999999 1.224646799147353e-16 1.642804049842416e-08 0.0 1.642804049842416e-08 0.0 -0.9999999999999999 1.224646799147353e-16
730282570.6426606 -0.9999999999999999 1.224646799147353e-16 1.6485704813650576e-08 0.0 1.6485704813650576e-08 0.0 -0.9999999999999999 1.224646799147353e-16
730370092.5231308 -0.9999999999999999 1.224646799147353e-16 1.654360406823592e-08 0.0 1.654360406823592e-08 0.0 -0.9999999999999999 1.224646799147353e-16
730457614.4036009 -0.9999999999999999 1.224646799147353e-16 1.6601739358485577e-08 0.0 1.6601739358485577e-08 0.0 -0.9999999999999999 1.224646799147353e-16
730545136.2840711 -0.9999999999999998 1.224646799147353e-16 1.6660111786488154e-08 0.0 1.6660111786488154e-08 0.0 -0.9999999999999998 1.224646799147353e-16
730632658.1645411 -0.9999999999999998 1.224646799147353e-16 1.6718722460148713e-08 0.0 1.6718722460148713e-08 0.0 -0.9999999999999998 1.224646799147353e-16
730720180.0450113 -0.9999999999999998 1.224646799147353e-16 1.677757249322349e-08 0.0 1.677757249322349e-08 0.0 -0.9999999999999998 1.224646799147353e-16
730807701.9254813 -0.9999999999999998 1.224646799147353e-16 1.683666300535387e-08 0.0 1.683666300535387e-08 0.0 -0.9999999999999998 1.224646799147353e-16
730895223.8059514 -0.9999999999999998 1.224646799147353e-16 1.689599512210221e-08 0.0 1.689599512210221e-08 0.0 -0.9999999999999998 1.224646799147353e-16
730982745.6864215 -0.9999999999999998 1.224646799147353e-16 1.695556997498562e-08 0.0 1.695556997498562e-08 0.0 -0.9999999999999998 1.224646799147353e-16
731070267.5668917 -0.9999999999999998 1.224646799147353e-16 1.7015388701511693e-08 0.0 1.7015388701511693e-08 0.0 -0.9999999999999998 1.224646799147353e-16
731157789.4473617 -0.9999999999999998 1.224646799147353e-16 1.7075452445214037e-08 0.0 1.7075452445214037e-08 0.0 -0.9999999999999998 1.224646799147353e-16
731245311.3278319 -0.9999999999999998 1.224646799147353e-16 1.713576235568822e-08 0.0 1.713576235568822e-08 0.0 -0.9999999999999998 1.224646799147353e-16
731332833.208302 -0.9999999999999998 1.224646799147353e-16 1.7196319588626577e-08 0.0 1.7196319588626577e-08 0.0 -0.9999999999999998 1.224646799147353e-16
731420355.0887722 -0.9999999999999998 1.224646799147353e-16 1.7257125305855538e-08 0.0 1.7257125305855538e-08 0.0 -0.9999999999999998 1.224646799147353e-16
731507876.9692422 -0.9999999999999998 1.224646799147353e-16 1.7318180675371276e-08 0.0 1.7318180675371276e-08 0.0 -0.9999999999999998 1.224646799147353e-16
731595398.8497124 -0.9999999999999998 1.224646799147353e-16 1.7379486871376782e-08 0.0 1.7379486871376782e-08 0.0 -0.9999999999999998 1.224646799147353e-16
731682920.7301825 -0.9999999999999998 1.224646799147353e-16 1.744104507431847e-08 0.0 1.744104507431847e-08 0.0 -0.9999999999999998 1.224646799147353e-16
731770442.6106526 -0.9999999999999998 1.224646799147353e-16 1.7502856470922997e-08 0.0 1.7502856470922997e-08 0.0 -0.9999999999999998 1.224646799147353e-16
731857964.4911227 -0.9999999999999998 1.224646799147353e-16 1.7564922254235292e-08 0.0 1.7564922254235292e-08 0.0 -0.9999999999999998 1.224646799147353e-16
731945486.3715929 -0.9999999999999998 1.224646799147353e-16 1.762724362365534e-08 0.0 1.762724362365534e-08 0.0 -0.9999999999999998 1.224646799147353e-16
732033008.2520629 -0.9999999999999998 1.224646799147353e-16 1.7689821784976717e-08 0.0 1.7689821784976717e-08 0.0 -0.9999999999999998 1.224646799147353e-16
732120530.1325331 -0.9999999999999998 1.224646799147353e-16 1.7752657950424522e-08 0.0 1.7752657950424522e-08 0.0 -0.9999999999999998 1.224646799147353e-16
732208052.0130032 -0.9999999999999998 1.224646799147353e-16 1.7815753338693052e-08 0.0 1.7815753338693052e-08 0.0 -0.9999999999999998 1.224646799147353e-16
732295573.8934734 -0.9999999999999998 1.224646799147353e-16 1.7879109174985306e-08 0.0 1.7879109174985306e-08 0.0 -0.9999999999999998 1.224646799147353e-16
732383095.7739434 -0.9999999999999998 1.224646799147353e-16 1.7942726691051075e-08 0.0 1.7942726691051075e-08 0.0 -0.9999999999999998 1.224646799147353e-16
732470617.6544136 -0.9999999999999998 1.224646799147353e-16 1.8006607125226675e-08 0.0 1.8006607125226675e-08 0.0 -0.9999999999999998 1.224646799147353e-16
732558139.5348837 -0.9999999999999998 1.224646799147353e-16 1.8070751722473682e-08 0.0 1.8070751722473682e-08 0.0 -0.9999999999999998 1.224646799147353e-16
732645661.4153538 -0.9999999999999998 1.224646799147353e-16 1.8135161734419115e-08 0.0 1.8135161734419115e-08 0.0 -0.9999999999999998 1.224646799147353e-16
732733183.2958239 -0.9999999999999998 1.224646799147353e-16 1.8199838419394956e-08 0.0 1.8199838419394956e-08 0.0 -0.9999999999999998 1.224646799147353e-16
732820705.1762941 -0.9999999999999998 1.224646799147353e-16 1.826478304247822e-08 0.0 1.826478304247822e-08 0.0 -0.9999999999999998 1.224646799147353e-16
732908227.0567641 -0.9999999999999998 1.224646799147353e-16 1.832999687553169e-08 0.0 1.832999687553169e-08 0.0 -0.9999999999999998 1.224646799147353e-16
732995748.9372343 -0.9999999999999998 1.224646799147353e-16 1.8395481197244468e-08 0.0 1.8395481197244468e-08 0.0 -0.9999999999999998 1.224646799147353e-16
733083270.8177044 -0.9999999999999998 1.224646799147353e-16 1.84612372931726e-08 0.0 1.84612372931726e-08 0.0 -0.9999999999999998 1.224646799147353e-16
733170792.6981745 -0.9999999999999998 1.224646799147353e-16 1.8527266455780557e-08 0.0 1.8527266455780557e-08 0.0 -0.9999999999999998 1.224646799147353e-16
733258314.5786446 -0.9999999999999998 1.224646799147353e-16 1.8593569984483243e-08 0.0 1.8593569984483243e-08 0.0 -0.9999999999999998 1.224646799147353e-16
733345836.4591148 -0.9999999999999998 1.224646799147353e-16 1.8660149185686332e-08 0.0 1.8660149185686332e-08 0.0 -0.9999999999999998 1.224646799147353e-16
733433358.339585 -0.9999999999999998 1.224646799147353e-16 1.8727005372830126e-08 0.0 1.8727005372830126e-08 0.0 -0.9999999999999998 1.224646799147353e-16
733520880.220055 -0.9999999999999998 1.224646799147353e-16 1.879413986643006e-08 0.0 1.879413986643006e-08 0.0 -0.9999999999999998 1.224646799147353e-16
733608402.1005251 -0.9999999999999998 1.224646799147353e-16 1.8861553994120943e-08 0.0 1.8861553994120943e-08 0.0 -0.9999999999999998 1.224646799147353e-16
733695923.9809953 -0.9999999999999998 1.224646799147353e-16 1.8929249090698654e-08 0.0 1.8929249090698654e-08 0.0 -0.9999999999999998 1.224646799147353e-16
733783445.8614653 -0.9999999999999998 1.224646799147353e-16 1.899722649816384e-08 0.0 1.899722649816384e-08 0.0 -0.9999999999999998 1.224646799147353e-16
733870967.7419355 -0.9999999999999998 1.224646799147353e-16 1.906548756576531e-08 0.0 1.906548756576531e-08 0.0 -0.9999999999999998 1.224646799147353e-16
733958489.6224056 -0.9999999999999998 1.224646799147353e-16 1.9134033650043916e-08 0.0 1.9134033650043916e-08 0.0 -0.9999999999999998 1.224646799147353e-16
734046011.5028757 -0.9999999999999998 1.224646799147353e-16 1.920286611487586e-08 0.0 1.920286611487586e-08 0.0 -0.9999999999999998 1.224646799147353e-16
734133533.3833458 -0.9999999999999998 1.224646799147353e-16 1.9271986331518416e-08 0.0 1.9271986331518416e-08 0.0 -0.9999999999999998 1.224646799147353e-16
734221055.2638159 -0.9999999999999998 1.224646799147353e-16 1.9341395678652963e-08 0.0 1.9341395678652963e-08 0.0 -0.9999999999999998 1.224646799147353e-16
734308577.144286 -0.9999999999999998 1.224646799147353e-16 1.9411095542431255e-08 0.0 1.9411095542431255e-08 0.0 -0.9999999999999998 1.224646799147353e-16
734396099.0247561 -0.9999999999999998 1.224646799147353e-16 1.9481087316519813e-08 0.0 1.9481087316519813e-08 0.0 -0.9999999999999998 1.224646799147353e-16
734483620.9052262 -0.9999999999999998 1.224646799147353e-16 1.955137240214568e-08 0.0 1.955137240214568e-08 0.0 -0.9999999999999998 1.224646799147353e-16
734571142.7856964 -0.9999999999999998 1.224646799147353e-16 1.962195220814273e-08 0.0 1.962195220814273e-08 0.0 -0.9999999999999998 1.224646799147353e-16
734658664.6661664 -0.9999999999999998 1.224646799147353e-16 1.969282815099682e-08 0.0 1.969282815099682e-08 0.0 -0.9999999999999998 1.224646799147353e-16
734746186.5466366 -0.9999999999999998 1.224646799147353e-16 1.976400165489322e-08 0.0 1.976400165489322e-08 0.0 -0.9999999999999998 1.224646799147353e-16
734833708.4271067 -0.9999999999999998 1.224646799147353e-16 1.9835474151762815e-08 0.0 1.9835474151762815e-08 0.0 -0.9999999999999998 1.224646799147353e-16
734921230.3075768 -0.9999999999999998 1.224646799147353e-16 1.990724708132924e-08 0.0 1.990724708132924e-08 0.0 -0.9999999999999998 1.224646799147353e-16
735008752.1880469 -0.9999999999999998 1.224646799147353e-16 1.9979321891156964e-08 0.0 1.9979321891156964e-08 0.0 -0.9999999999999998 1.224646799147353e-16
735096274.0685171 -0.9999999999999998 1.224646799147353e-16 2.0051700036697673e-08 0.0 2.0051700036697673e-08 0.0 -0.9999999999999998 1.224646799147353e-16
735183795.9489872 -0.9999999999999998 1.224646799147353e-16 2.0124382981339466e-08 0.0 2.0124382981339466e-08 0.0 -0.9999999999999998 1.224646799147353e-16
735271317.8294573 -0.9999999999999998 1.224646799147353e-16 2.0197372196454808e-08 0.0 2.0197372196454808e-08 0.0 -0.9999999999999998 1.224646799147353e-16
735358839.7099274 -0.9999999999999998 1.224646799147353e-16 2.0270669161449314e-08 0.0 2.0270669161449314e-08 0.0 -0.9999999999999998 1.224646799147353e-16
735446361.5903976 -0.9999999999999998 1.224646799147353e-16 2.034427536381049e-08 0.0 2.034427536381049e-08 0.0 -0.9999999999999998 1.224646799147353e-16
735533883.4708676 -0.9999999999999998 1.224646799147353e-16 2.0418192299157197e-08 0.0 2.0418192299157197e-08 0.0 -0.9999999999999998 1.224646799147353e-16
735621405.3513378 -0.9999999999999998 1.224646799147353e-16 2.049242147128978e-08 0.0 2.049242147128978e-08 0.0 -0.9999999999999998 1.224646799147353e-16
735708927.231808 -0.9999999999999998 1.224646799147353e-16 2.0566964392239633e-08 0.0 2.0566964392239633e-08 0.0 -0.9999999999999998 1.224646799147353e-16
735796449.112278 -0.9999999999999998 1.224646799147353e-16 2.0641822582319097e-08 0.0 2.0641822582319097e-08 0.0 -0.9999999999999998 1.224646799147353e-16
735883970.9927481 -0.9999999999999998 1.224646799147353e-16 2.071699757017341e-08 0.0 2.071699757017341e-08 0.0 -0.9999999999999998 1.224646799147353e-16
735971492.8732183 -0.9999999999999998 1.224646799147353e-16 2.0792490892830757e-08 0.0 2.0792490892830757e-08 0.0 -0.9999999999999998 1.224646799147353e-16
736059014.7536885 -0.9999999999999998 1.224646799147353e-16 2.0868304095753713e-08 0.0 2.0868304095753713e-08 0.0 -0.9999999999999998 1.224646799147353e-16
736146536.6341585 -0.9999999999999998 1.224646799147353e-16 2.0944438732891462e-08 0.0 2.0944438732891462e-08 0.0 -0.9999999999999998 1.224646799147353e-16
736234058.5146286 -0.9999999999999998 1.224646799147353e-16 2.102089636673155e-08 0.0 2.102089636673155e-08 0.0 -0.9999999999999998 1.224646799147353e-16
736321580.3950988 -0.9999999999999998 1.224646799147353e-16 2.1097678568352597e-08 0.0 2.1097678568352597e-08 0.0 -0.9999999999999998 1.224646799147353e-16
736409102.2755688 -0.9999999999999998 1.224646799147353e-16 2.117478691747618e-08 0.0 2.117478691747618e-08 0.0 -0.9999999999999998 1.224646799147353e-16
736496624.156039 -0.9999999999999998 1.224646799147353e-16 2.125222300252151e-08 0.0 2.125222300252151e-08 0.0 -0.9999999999999998 1.224646799147353e-16
736584146.0365092 -0.9999999999999998 1.224646799147353e-16 2.132998842065794e-08 0.0 2.132998842065794e-08 0.0 -0.9999999999999998 1.224646799147353e-16
736671667.9169792 -0.9999999999999998 1.224646799147353e-16 2.1408084777858436e-08 0.0 2.1408084777858436e-08 0.0 -0.9999999999999998 1.224646799147353e-16
736759189.7974494 -0.9999999999999998 1.224646799147353e-16 2.148651368895524e-08 0.0 2.148651368895524e-08 0.0 -0.9999999999999998 1.224646799147353e-16
736846711.6779195 -0.9999999999999998 1.224646799147353e-16 2.1565276777693222e-08 0.0 2.1565276777693222e-08 0.0 -0.9999999999999998 1.224646799147353e-16
736934233.5583897 -0.9999999999999998 1.224646799147353e-16 2.1644375676785276e-08 0.0 2.1644375676785276e-08 0.0 -0.9999999999999998 1.224646799147353e-16
737021755.4388597 -0.9999999999999998 1.224646799147353e-16 2.1723812027967902e-08 0.0 2.1723812027967902e-08 0.0 -0.9999999999999998 1.224646799147353e-16
737109277.3193299 -0.9999999999999998 1.224646799147353e-16 2.1803587482056663e-08 0.0 2.1803587482056663e-08 0.0 -0.9999999999999998 1.224646799147353e-16
737196799.1998 -0.9999999999999998 1.224646799147353e-16 2.188370369900274e-08 0.0 2.188370369900274e-08 0.0 -0.9999999999999998 1.224646799147353e-16
737284321.0802699 -0.9999999999999998 1.224646799147353e-16 2.196416234794822e-08 0.0 2.196416234794822e-08 0.0 -0.9999999999999998 1.224646799147353e-16
737371842.9607401 -0.9999999999999998 1.224646799147353e-16 2.2044965107285288e-08 0.0 2.2044965107285288e-08 0.0 -0.9999999999999998 1.224646799147353e-16
737459364.8412102 -0.9999999999999998 1.224646799147353e-16 2.2126113664710742e-08 0.0 2.2126113664710742e-08 0.0 -0.9999999999999998 1.224646799147353e-16
737546886.7216803 -0.9999999999999998 1.224646799147353e-16 2.220760971728595e-08 0.0 2.220760971728595e-08 0.0 -0.9999999999999998 1.224646799147353e-16
737634408.6021504 -0.9999999999999998 1.224646799147353e-16 2.2289454971493564e-08 0.0 2.2289454971493564e-08 0.0 -0.9999999999999998 1.224646799147353e-16
737721930.4826206 -0.9999999999999997 1.2246467991473527e-16 2.2371651143296555e-08 0.0 2.2371651143296555e-08 0.0 -0.9999999999999997 1.2246467991473527e-16
737809452.3630908 -0.9999999999999997 1.2246467991473527e-16 2.245419995819712e-08 0.0 2.245419995819712e-08 0.0 -0.9999999999999997 1.2246467991473527e-16
737896974.2435608 -0.9999999999999997 1.2246467991473527e-16 2.2537103151295422e-08 0.0 2.2537103151295422e-08 0.0 -0.9999999999999997 1.2246467991473527e-16
737984496.124031 -0.9999999999999997 1.2246467991473527e-16 2.262036246735019e-08 0.0 2.262036246735019e-08 0.0 -0.9999999999999997 1.2246467991473527e-16
738072018.0045011 -0.9999999999999997 1.2246467991473527e-16 2.270397966083779e-08 0.0 2.270397966083779e-08 0.0 -0.9999999999999997 1.2246467991473527e-16
738159539.8849711 -0.9999999999999997 1.2246467991473527e-16 2.278795649601347e-08 0.0 2.278795649601347e-08 0.0 -0.9999999999999997 1.2246467991473527e-16
738247061.7654413 -0.9999999999999997 1.2246467991473527e-16 2.2872294746972263e-08 0.0 2.2872294746972263e-08 0.0 -0.9999999999999997 1.2246467991473527e-16
738334583.6459115 -0.9999999999999997 1.2246467991473527e-16 2.295699619770949e-08 0.0 2.295699619770949e-08 0.0 -0.9999999999999997 1.2246467991473527e-16
738422105.5263815 -0.9999999999999997 1.2246467991473527e-16 2.3042062642183745e-08 0.0 2.3042062642183745e-08 0.0 -0.9999999999999997 1.2246467991473527e-16
738509627.4068516 -0.9999999999999997 1.2246467991473527e-16 2.3127495884378324e-08 0.0 2.3127495884378324e-08 0.0 -0.9999999999999997 1.2246467991473527e-16
738597149.2873218 -0.9999999999999997 1.2246467991473527e-16 2.3213297738364145e-08 0.0 2.3213297738364145e-08 0.0 -0.9999999999999997 1.2246467991473527e-16
738684671.167792 -0.9999999999999997 1.2246467991473527e-16 2.3299470028362326e-08 0.0 2.3299470028362326e-08 0.0 -0.9999999999999997 1.2246467991473527e-16
738772193.048262 -0.9999999999999997 1.2246467991473527e-16 2.3386014588808008e-08 0.0 2.3386014588808008e-08 0.0 -0.9999999999999997 1.2246467991473527e-16
738859714.9287322 -0.9999999999999997 1.2246467991473527e-16 2.3472933264415125e-08 0.0 2.3472933264415125e-08 0.0 -0.9999999999999997 1.2246467991473527e-16
738947236.8092023 -0.9999999999999997 1.2246467991473527e-16 2.3560227910239095e-08 0.0 2.3560227910239095e-08 0.0 -0.9999999999999997 1.2246467991473527e-16
739034758.6896724 -0.9999999999999997 1.2246467991473527e-16 2.3647900391742923e-08 0.0 2.3647900391742923e-08 0.0 -0.9999999999999997 1.2246467991473527e-16
739122280.5701425 -0.9999999999999997 1.2246467991473527e-16 2.3735952584861953e-08 0.0 2.3735952584861953e-08 0.0 -0.9999999999999997 1.2246467991473527e-16
739209802.4506127 -0.9999999999999997 1.2246467991473527e-16 2.3824386376069972e-08 0.0 2.3824386376069972e-08 0.0 -0.9999999999999997 1.2246467991473527e-16
739297324.3310827 -0.9999999999999997 1.2246467991473527e-16 2.3913203662444764e-08 0.0 2.3913203662444764e-08 0.0 -0.9999999999999997 1.2246467991473527e-16
739384846.2115529 -0.9999999999999997 1.2246467991473527e-16 2.4002406351735513e-08 0.0 2.4002406351735513e-08 0.0 -0.9999999999999997 1.2246467991473527e-16
739472368.092023 -0.9999999999999997 1.2246467991473527e-16 2.4091996362429106e-08 0.0 2.4091996362429106e-08 0.0 -0.9999999999999997 1.2246467991473527e-16
739559889.972493 -0.9999999999999997 1.2246467991473527e-16 2.4181975623818543e-08 0.0 2.4181975623818543e-08 0.0 -0.9999999999999997 1.2246467991473527e-16
739647411.8529632 -0.9999999999999997 1.2246467991473527e-16 2.4272346076070145e-08 0.0 2.4272346076070145e-08 0.0 -0.9999999999999997 1.2246467991473527e-16
739734933.7334334 -0.9999999999999997 1.2246467991473527e-16 2.4363109670292806e-08 0.0 2.4363109670292806e-08 0.0 -0.9999999999999997 1.2246467991473527e-16
739822455.6139035 -0.9999999999999997 1.2246467991473527e-16 2.445426836860661e-08 0.0 2.445426836860661e-08 0.0 -0.9999999999999997 1.2246467991473527e-16
739909977.4943736 -0.9999999999999997 1.2246467991473527e-16 2.4545824144212144e-08 0.0 2.4545824144212144e-08 0.0 -0.9999999999999997 1.2246467991473527e-16
739997499.3748437 -0.9999999999999997 1.2246467991473527e-16 2.4637778981460888e-08 0.0 2.4637778981460888e-08 0.0 -0.9999999999999997 1.2246467991473527e-16
740085021.2553139 -0.9999999999999997 1.2246467991473527e-16 2.473013487592566e-08 0.0 2.473013487592566e-08 0.0 -0.9999999999999997 1.2246467991473527e-16
740172543.1357839 -0.9999999999999997 1.2246467991473527e-16 2.4822893834470667e-08 0.0 2.4822893834470667e-08 0.0 -0.9999999999999997 1.2246467991473527e-16
740260065.0162541 -0.9999999999999997 1.2246467991473527e-16 2.491605787532461e-08 0.0 2.491605787532461e-08 0.0 -0.9999999999999997 1.2246467991473527e-16
740347586.8967242 -0.9999999999999997 1.2246467991473527e-16 2.500962902815059e-08 0.0 2.500962902815059e-08 0.0 -0.9999999999999997 1.2246467991473527e-16
740435108.7771943 -0.9999999999999997 1.2246467991473527e-16 2.510360933412055e-08 0.0 2.510360933412055e-08 0.0 -0.9999999999999997 1.2246467991473527e-16
740522630.6576644 -0.9999999999999997 1.2246467991473527e-16 2.5198000845986734e-08 0.0 2.5198000845986734e-08 0.0 -0.9999999999999997 1.2246467991473527e-16
740610152.5381346 -0.9999999999999997 1.2246467991473527e-16 2.5292805628155648e-08 0.0 2.5292805628155648e-08 0.0 -0.9999999999999997 1.2246467991473527e-16
740697674.4186046 -0.9999999999999997 1.2246467991473527e-16 2.5388025756762552e-08 0.0 2.5388025756762552e-08 0.0 -0.9999999999999997 1.2246467991473527e-16
740785196.2990746 -0.9999999999999997 1.2246467991473527e-16 2.5483663319744972e-08 0.0 2.5483663319744972e-08 0.0 -0.9999999999999997 1.2246467991473527e-16
740872718.1795448 -0.9999999999999997 1.2246467991473527e-16 2.5579720416918863e-08 0.0 2.5579720416918863e-08 0.0 -0.9999999999999997 1.2246467991473527e-16
740960240.060015 -0.9999999999999997 1.2246467991473527e-16 2.5676199160052945e-08 0.0 2.5676199160052945e-08 0.0 -0.9999999999999997 1.2246467991473527e-16
741047761.940485 -0.9999999999999997 1.2246467991473527e-16 2.577310167294551e-08 0.0 2.577310167294551e-08 0.0 -0.9999999999999997 1.2246467991473527e-16
741135283.8209552 -0.9999999999999997 1.2246467991473527e-16 2.5870430091501374e-08 0.0 2.5870430091501374e-08 0.0 -0.9999999999999997 1.2246467991473527e-16
741222805.7014253 -0.9999999999999997 1.2246467991473527e-16 2.5968186563807974e-08 0.0 2.5968186563807974e-08 0.0 -0.9999999999999997 1.2246467991473527e-16
741310327.5818955 -0.9999999999999997 1.2246467991473527e-16 2.606637325021417e-08 0.0 2.606637325021417e-08 0.0 -0.9999999999999997 1.2246467991473527e-16
741397849.4623655 -0.9999999999999997 1.2246467991473527e-16 2.6164992323407354e-08 0.0 2.6164992323407354e-08 0.0 -0.9999999999999997 1.2246467991473527e-16
741485371.3428357 -0.9999999999999997 1.2246467991473527e-16 2.6264045968493588e-08 0.0 2.6264045968493588e-08 0.0 -0.9999999999999997 1.2246467991473527e-16
741572893.2233058 -0.9999999999999997 1.2246467991473527e-16 2.6363536383075932e-08 0.0 2.6363536383075932e-08 0.0 -0.9999999999999997 1.2246467991473527e-16
741660415.1037759 -0.9999999999999997 1.2246467991473527e-16 2.646346577733487e-08 0.0 2.646346577733487e-08 0.0 -0.9999999999999997 1.2246467991473527e-16
741747936.984246 -0.9999999999999997 1.2246467991473527e-16 2.656383637410839e-08 0.0 2.656383637410839e-08 0.0 -0.9999999999999997 1.2246467991473527e-16
741835458.8647162 -0.9999999999999997 1.2246467991473527e-16 2.6664650408973466e-08 0.0 2.6664650408973466e-08 0.0 -0.9999999999999997 1.2246467991473527e-16
741922980.7451862 -0.9999999999999997 1.2246467991473527e-16 2.6765910130327355e-08 0.0 2.6765910130327355e-08 0.0 -0.9999999999999997 1.2246467991473527e-16
742010502.6256564 -0.9999999999999996 1.2246467991473527e-16 2.6867617799470363e-08 0.0 2.6867617799470363e-08 0.0 -0.9999999999999996 1.2246467991473527e-16
742098024.5061265 -0.9999999999999996 1.2246467991473527e-16 2.69697756906877e-08 0.0 2.69697756906877e-08 0.0 -0.9999999999999996 1.2246467991473527e-16
742185546.3865966 -0.9999999999999996 1.2246467991473527e-16 2.7072386091333488e-08 0.0 2.7072386091333488e-08 0.0 -0.9999999999999996 1.2246467991473527e-16
742273068.2670667 -0.9999999999999996 1.2246467991473527e-16 2.7175451301915274e-08 0.0 2.7175451301915274e-08 0.0 -0.9999999999999996 1.2246467991473527e-16
742360590.1475369 -0.9999999999999996 1.2246467991473527e-16 2.7278973636177294e-08 0.0 2.7278973636177294e-08 0.0 -0.9999999999999996 1.2246467991473527e-16
742448112.028007 -0.9999999999999996 1.2246467991473527e-16 2.7382955421186246e-08 0.0 2.7382955421186246e-08 0.0 -0.9999999999999996 1.2246467991473527e-16
742535633.9084771 -0.9999999999999996 1.2246467991473527e-16 2.748739899741762e-08 0.0 2.748739899741762e-08 0.0 -0.9999999999999996 1.2246467991473527e-16
742623155.7889472 -0.9999999999999996 1.2246467991473527e-16 2.7592306718841732e-08 0.0 2.7592306718841732e-08 0.0 -0.9999999999999996 1.2246467991473527e-16
742710677.6694174 -0.9999999999999996 1.2246467991473527e-16 2.769768095300997e-08 0.0 2.769768095300997e-08 0.0 -0.9999999999999996 1.2246467991473527e-16
742798199.5498874 -0.9999999999999996 1.2246467991473527e-16 2.780352408114346e-08 0.0 2.780352408114346e-08 0.0 -0.9999999999999996 1.2246467991473527e-16
742885721.4303576 -0.9999999999999996 1.2246467991473527e-16 2.7909838498221224e-08 0.0 2.7909838498221224e-08 0.0 -0.9999999999999996 1.2246467991473527e-16
742973243.3108277 -0.9999999999999996 1.2246467991473527e-16 2.801662661306816e-08 0.0 2.801662661306816e-08 0.0 -0.9999999999999996 1.2246467991473527e-16
743060765.1912978 -0.9999999999999996 1.2246467991473527e-16 2.8123890848445506e-08 0.0 2.8123890848445506e-08 0.0 -0.9999999999999996 1.2246467991473527e-16
743148287.0717679 -0.9999999999999996 1.2246467991473527e-16 2.82316336411407e-08 0.0 2.82316336411407e-08 0.0 -0.9999999999999996 1.2246467991473527e-16
743235808.9522381 -0.9999999999999996 1.2246467991473527e-16 2.8339857442058278e-08 0.0 2.8339857442058278e-08 0.0 -0.9999999999999996 1.2246467991473527e-16
743323330.8327082 -0.9999999999999996 1.2246467991473527e-16 2.8448564716310755e-08 0.0 2.8448564716310755e-08 0.0 -0.9999999999999996 1.2246467991473527e-16
743410852.7131783 -0.9999999999999996 1.2246467991473527e-16 2.8557757943311657e-08 0.0 2.8557757943311657e-08 0.0 -0.9999999999999996 1.2246467991473527e-16
743498374.5936484 -0.9999999999999996 1.2246467991473527e-16 2.866743961686773e-08 0.0 2.866743961686773e-08 0.0 -0.9999999999999996 1.2246467991473527e-16
743585896.4741186 -0.9999999999999996 1.2246467991473527e-16 2.877761224527228e-08 0.0 2.877761224527228e-08 0.0 -0.9999999999999996 1.2246467991473527e-16
743673418.3545886 -0.9999999999999996 1.2246467991473527e-16 2.88882783513994e-08 0.0 2.88882783513994e-08 0.0 -0.9999999999999996 1.2246467991473527e-16
743760940.2350587 -0.9999999999999996 1.2246467991473527e-16 2.8999440472799393e-08 0.0 2.8999440472799393e-08 0.0 -0.9999999999999996 1.2246467991473527e-16
743848462.1155288 -0.9999999999999996 1.2246467991473527e-16 2.9111101161793624e-08 0.0 2.9111101161793624e-08 0.0 -0.9999999999999996 1.2246467991473527e-16
743935983.9959989 -0.9999999999999996 1.2246467991473527e-16 2.9223262985569785e-08 0.0 2.9223262985569785e-08 0.0 -0.9999999999999996 1.2246467991473527e-16
744023505.876469 -0.9999999999999996 1.2246467991473527e-16 2.9335928526281193e-08 0.0 2.9335928526281193e-08 0.0 -0.9999999999999996 1.2246467991473527e-16
744111027.7569392 -0.9999999999999996 1.2246467991473527e-16 2.9449100381141907e-08 0.0 2.9449100381141907e-08 0.0 -0.9999999999999996 1.2246467991473527e-16
744198549.6374093 -0.9999999999999996 1.2246467991473527e-16 2.9562781162525864e-08 0.0 2.9562781162525864e-08 0.0 -0.9999999999999996 1.2246467991473527e-16
744286071.5178794 -0.9999999999999996 1.2246467991473527e-16 2.967697349806619e-08 0.0 2.967697349806619e-08 0.0 -0.9999999999999996 1.2246467991473527e-16
744373593.3983495 -0.9999999999999996 1.2246467991473527e-16 2.979168003075496e-08 0.0 2.979168003075496e-08 0.0 -0.9999999999999996 1.2246467991473527e-16
744461115.2788197 -0.9999999999999996 1.2246467991473527e-16 2.9906903419042674e-08 0.0 2.9906903419042674e-08 0.0 -0.9999999999999996 1.2246467991473527e-16
744548637.1592897 -0.9999999999999996 1.2246467991473527e-16 3.002264633693987e-08 0.0 3.002264633693987e-08 0.0 -0.9999999999999996 1.2246467991473527e-16
744636159.0397599 -0.9999999999999996 1.2246467991473527e-16 3.013891147411994e-08 0.0 3.013891147411994e-08 0.0 -0.9999999999999996 1.2246467991473527e-16
744723680.92023 -0.9999999999999996 1.2246467991473527e-16 3.0255701536019685e-08 0.0 3.0255701536019685e-08 0.0 -0.9999999999999996 1.2246467991473527e-16
744811202.8007001 -0.9999999999999996 1.2246467991473527e-16 3.0373019243944476e-08 0.0 3.0373019243944476e-08 0.0 -0.9999999999999996 1.2246467991473527e-16
744898724.6811702 -0.9999999999999996 1.2246467991473527e-16 3.049086733517176e-08 0.0 3.049086733517176e-08 0.0 -0.9999999999999996 1.2246467991473527e-16
744986246.5616404 -0.9999999999999996 1.2246467991473527e-16 3.0609248563055595e-08 0.0 3.0609248563055595e-08 0.0 -0.9999999999999996 1.2246467991473527e-16
745073768.4421105 -0.9999999999999994 1.2246467991473525e-16 3.072816569713231e-08 0.0 3.072816569713231e-08 0.0 -0.9999999999999994 1.2246467991473525e-16
745161290.3225806 -0.9999999999999994 1.2246467991473525e-16 3.084762152322709e-08 0.0 3.084762152322709e-08 0.0 -0.9999999999999994 1.2246467991473525e-16
745248812.2030507 -0.9999999999999994 1.2246467991473525e-16 3.096761884356186e-08 0.0 3.096761884356186e-08 0.0 -0.9999999999999994 1.2246467991473525e-16
745336334.0835209 -0.9999999999999994 1.2246467991473525e-16 3.108816047686133e-08 0.0 3.108816047686133e-08 0.0 -0.9999999999999994 1.2246467991473525e-16
745423855.9639909 -0.9999999999999994 1.2246467991473525e-16 3.120924925846331e-08 0.0 3.120924925846331e-08 0.0 -0.9999999999999994 1.2246467991473525e-16
745511377.8444611 -0.9999999999999994 1.2246467991473525e-16 3.1330888040427984e-08 0.0 3.1330888040427984e-08 0.0 -0.9999999999999994 1.2246467991473525e-16
745598899.7249312 -0.9999999999999994 1.2246467991473525e-16 3.145307969164783e-08 0.0 3.145307969164783e-08 0.0 -0.9999999999999994 1.2246467991473525e-16
745686421.6054013 -0.9999999999999994 1.2246467991473525e-16 3.1575827097958234e-08 0.0 3.1575827097958234e-08 0.0 -0.9999999999999994 1.2246467991473525e-16
745773943.4858714 -0.9999999999999994 1.2246467991473525e-16 3.1699133162250886e-08 0.0 3.1699133162250886e-08 0.0 -0.9999999999999994 1.2246467991473525e-16
745861465.3663416 -0.9999999999999994 1.2246467991473525e-16 3.18230008045855e-08 0.0 3.18230008045855e-08 0.0 -0.9999999999999994 1.2246467991473525e-16
745948987.2468117 -0.9999999999999994 1.2246467991473525e-16 3.194743296230316e-08 0.0 3.194743296230316e-08 0.0 -0.9999999999999994 1.2246467991473525e-16
746036509.1272818 -0.9999999999999994 1.2246467991473525e-16 3.207243259014145e-08 0.0 3.207243259014145e-08 0.0 -0.9999999999999994 1.2246467991473525e-16
746124031.007752 -0.9999999999999994 1.2246467991473525e-16 3.2198002660349515e-08 0.0 3.2198002660349515e-08 0.0 -0.9999999999999994 1.2246467991473525e-16
746211552.8882221 -0.9999999999999994 1.2246467991473525e-16 3.232414616280352e-08 0.0 3.232414616280352e-08 0.0 -0.9999999999999994 1.2246467991473525e-16
746299074.7686921 -0.9999999999999994 1.2246467991473525e-16 3.245086610512413e-08 0.0 3.245086610512413e-08 0.0 -0.9999999999999994 1.2246467991473525e-16
746386596.6491623 -0.9999999999999994 1.2246467991473525e-16 3.257816551279484e-08 0.0 3.257816551279484e-08 0.0 -0.9999999999999994 1.2246467991473525e-16
746474118.5296324 -0.9999999999999994 1.2246467991473525e-16 3.2706047429279646e-08 0.0 3.2706047429279646e-08 0.0 -0.9999999999999994 1.2246467991473525e-16
746561640.4101025 -0.9999999999999994 1.2246467991473525e-16 3.283451491614232e-08 0.0 3.283451491614232e-08 0.0 -0.9999999999999994 1.2246467991473525e-16
746649162.2905726 -0.9999999999999994 1.2246467991473525e-16 3.296357105316873e-08 0.0 3.296357105316873e-08 0.0 -0.9999999999999994 1.2246467991473525e-16
746736684.1710428 -0.9999999999999994 1.2246467991473525e-16 3.309321893848589e-08 0.0 3.309321893848589e-08 0.0 -0.9999999999999994 1.2246467991473525e-16
746824206.0515128 -0.9999999999999994 1.2246467991473525e-16 3.322346168868518e-08 0.0 3.322346168868518e-08 0.0 -0.9999999999999994 1.2246467991473525e-16
746911727.931983 -0.9999999999999994 1.2246467991473525e-16 3.3354302438946124e-08 0.0 3.3354302438946124e-08 0.0 -0.9999999999999994 1.2246467991473525e-16
746999249.8124532 -0.9999999999999994 1.2246467991473525e-16 3.348574434315886e-08 0.0 3.348574434315886e-08 0.0 -0.9999999999999994 1.2246467991473525e-16
747086771.6929233 -0.9999999999999994 1.2246467991473525e-16 3.361779057405014e-08 0.0 3.361779057405014e-08 0.0 -0.9999999999999994 1.2246467991473525e-16
747174293.5733932 -0.9999999999999994 1.2246467991473525e-16 3.375044432330866e-08 0.0 3.375044432330866e-08 0.0 -0.9999999999999994 1.2246467991473525e-16
747261815.4538634 -0.9999999999999994 1.2246467991473525e-16 3.388370880171276e-08 0.0 3.388370880171276e-08 0.0 -0.9999999999999994 1.2246467991473525e-16
747349337.3343335 -0.9999999999999994 1.2246467991473525e-16 3.401758723925673e-08 0.0 3.401758723925673e-08 0.0 -0.9999999999999994 1.2246467991473525e-16
747436859.2148036 -0.9999999999999993 1.2246467991473525e-16 3.415208288528022e-08 0.0 3.415208288528022e-08 0.0 -0.9999999999999993 1.2246467991473525e-16
747524381.0952737 -0.9999999999999993 1.2246467991473525e-16 3.4287199008598326e-08 0.0 3.4287199008598326e-08 0.0 -0.9999999999999993 1.2246467991473525e-16
747611902.9757439 -0.9999999999999993 1.2246467991473525e-16 3.44229388976309e-08 0.0 3.44229388976309e-08 0.0 -0.9999999999999993 1.2246467991473525e-16
747699424.856214 -0.9999999999999993 1.2246467991473525e-16 3.455930586053534e-08 0.0 3.455930586053534e-08 0.0 -0.9999999999999993 1.2246467991473525e-16
747786946.7366841 -0.9999999999999993 1.2246467991473525e-16 3.4696303225338235e-08 0.0 3.4696303225338235e-08 0.0 -0.9999999999999993 1.2246467991473525e-16
747874468.6171542 -0.9999999999999993 1.2246467991473525e-16 3.483393434006953e-08 0.0 3.483393434006953e-08 0.0 -0.9999999999999993 1.2246467991473525e-16
747961990.4976244 -0.9999999999999993 1.2246467991473525e-16 3.497220257289659e-08 0.0 3.497220257289659e-08 0.0 -0.9999999999999993 1.2246467991473525e-16
748049512.3780944 -0.9999999999999993 1.2246467991473525e-16 3.511111131225928e-08 0.0 3.511111131225928e-08 0.0 -0.9999999999999993 1.2246467991473525e-16
748137034.2585646 -0.9999999999999993 1.2246467991473525e-16 3.525066396700798e-08 0.0 3.525066396700798e-08 0.0 -0.9999999999999993 1.2246467991473525e-16
748224556.1390347 -0.9999999999999993 1.2246467991473525e-16 3.539086396653961e-08 0.0 3.539086396653961e-08 0.0 -0.9999999999999993 1.2246467991473525e-16
748312078.0195048 -0.9999999999999993 1.2246467991473525e-16 3.5531714760936374e-08 0.0 3.5531714760936374e-08 0.0 -0.9999999999999993 1.2246467991473525e-16
748399599.899975 -0.9999999999999993 1.2246467991473525e-16 3.567321982110639e-08 0.0 3.567321982110639e-08 0.0 -0.9999999999999993 1.2246467991473525e-16
748487121.7804451 -0.9999999999999993 1.2246467991473525e-16 3.581538263892275e-08 0.0 3.581538263892275e-08 0.0 -0.9999999999999993 1.2246467991473525e-16
748574643.6609151 -0.9999999999999993 1.2246467991473525e-16 3.595820672736681e-08 0.0 3.595820672736681e-08 0.0 -0.9999999999999993 1.2246467991473525e-16
748662165.5413853 -0.9999999999999993 1.2246467991473525e-16 3.610169562066968e-08 0.0 3.610169562066968e-08 0.0 -0.9999999999999993 1.2246467991473525e-16
748749687.4218554 -0.9999999999999993 1.2246467991473525e-16 3.624585287445672e-08 0.0 3.624585287445672e-08 0.0 -0.9999999999999993 1.2246467991473525e-16
748837209.3023256 -0.9999999999999993 1.2246467991473525e-16 3.639068206589216e-08 0.0 3.639068206589216e-08 0.0 -0.9999999999999993 1.2246467991473525e-16
748924731.1827956 -0.9999999999999993 1.2246467991473525e-16 3.653618679382476e-08 0.0 3.653618679382476e-08 0.0 -0.9999999999999993 1.2246467991473525e-16
749012253.0632658 -0.9999999999999993 1.2246467991473525e-16 3.668237067893576e-08 0.0 3.668237067893576e-08 0.0 -0.9999999999999993 1.2246467991473525e-16
749099774.943736 -0.9999999999999993 1.2246467991473525e-16 3.682923736388647e-08 0.0 3.682923736388647e-08 0.0 -0.9999999999999993 1.2246467991473525e-16
749187296.824206 -0.9999999999999993 1.2246467991473525e-16 3.6976790513466734e-08 0.0 3.6976790513466734e-08 0.0 -0.9999999999999993 1.2246467991473525e-16
749274818.7046762 -0.9999999999999993 1.2246467991473525e-16 3.7125033814747615e-08 0.0 3.7125033814747615e-08 0.0 -0.9999999999999993 1.2246467991473525e-16
749362340.5851463 -0.9999999999999992 1.2246467991473522e-16 3.72739709772307e-08 0.0 3.72739709772307e-08 0.0 -0.9999999999999992 1.2246467991473522e-16
749449862.4656163 -0.9999999999999992 1.2246467991473522e-16 3.742360573300133e-08 0.0 3.742360573300133e-08 0.0 -0.9999999999999992 1.2246467991473522e-16
749537384.3460865 -0.9999999999999992 1.2246467991473522e-16 3.7573941836883296e-08 0.0 3.7573941836883296e-08 0.0 -0.9999999999999992 1.2246467991473522e-16
749624906.2265567 -0.9999999999999992 1.2246467991473522e-16 3.772498306659272e-08 0.0 3.772498306659272e-08 0.0 -0.9999999999999992 1.2246467991473522e-16
749712428.1070268 -0.9999999999999992 1.2246467991473522e-16 3.78767332228952e-08 0.0 3.78767332228952e-08 0.0 -0.9999999999999992 1.2246467991473522e-16
749799949.9874969 -0.9999999999999992 1.2246467991473522e-16 3.802919612976202e-08 0.0 3.802919612976202e-08 0.0 -0.9999999999999992 1.2246467991473522e-16
749887471.867967 -0.9999999999999992 1.2246467991473522e-16 3.818237563453029e-08 0.0 3.818237563453029e-08 0.0 -0.9999999999999992 1.2246467991473522e-16
749974993.7484372 -0.9999999999999992 1.2246467991473522e-16 3.833627560806065e-08 0.0 3.833627560806065e-08 0.0 -0.9999999999999992 1.2246467991473522e-16
750062515.6289072 -0.9999999999999992 1.2246467991473522e-16 3.8490899944899956e-08 0.0 3.8490899944899956e-08 0.0 -0.9999999999999992 1.2246467991473522e-16
750150037.5093774 -0.9999999999999992 1.2246467991473522e-16 3.864625256344239e-08 0.0 3.864625256344239e-08 0.0 -0.9999999999999992 1.2246467991473522e-16
750237559.3898474 -0.9999999999999992 1.2246467991473522e-16 3.880233740609305e-08 0.0 3.880233740609305e-08 0.0 -0.9999999999999992 1.2246467991473522e-16
750325081.2703176 -0.9999999999999992 1.2246467991473522e-16 3.895915843943356e-08 0.0 3.895915843943356e-08 0.0 -0.9999999999999992 1.2246467991473522e-16
750412603.1507876 -0.9999999999999992 1.2246467991473522e-16 3.9116719654385645e-08 0.0 3.9116719654385645e-08 0.0 -0.9999999999999992 1.2246467991473522e-16
750500125.0312577 -0.9999999999999992 1.2246467991473522e-16 3.9275025066381314e-08 0.0 3.9275025066381314e-08 0.0 -0.9999999999999992 1.2246467991473522e-16
750587646.9117279 -0.9999999999999992 1.2246467991473522e-16 3.943407871552837e-08 0.0 3.943407871552837e-08 0.0 -0.9999999999999992 1.2246467991473522e-16
750675168.792198 -0.9999999999999992 1.2246467991473522e-16 3.95938846667821e-08 0.0 3.95938846667821e-08 0.0 -0.9999999999999992 1.2246467991473522e-16
750762690.6726681 -0.9999999999999992 1.2246467991473522e-16 3.9754447010115274e-08 0.0 3.9754447010115274e-08 0.0 -0.9999999999999992 1.2246467991473522e-16
750850212.5531383 -0.9999999999999992 1.2246467991473522e-16 3.9915769860690587e-08 0.0 3.9915769860690587e-08 0.0 -0.9999999999999992 1.2246467991473522e-16
750937734.4336083 -0.9999999999999992 1.2246467991473522e-16 4.0077857359034066e-08 0.0 4.0077857359034066e-08 0.0 -0.9999999999999992 1.2246467991473522e-16
751025256.3140785 -0.9999999999999991 1.2246467991473522e-16 4.024071367121165e-08 0.0 4.024071367121165e-08 0.0 -0.9999999999999991 1.2246467991473522e-16
751112778.1945486 -0.9999999999999991 1.2246467991473522e-16 4.0404342989002226e-08 0.0 4.0404342989002226e-08 0.0 -0.9999999999999991 1.2246467991473522e-16
751200300.0750186 -0.9999999999999991 1.2246467991473522e-16 4.0568749530078135e-08 0.0 4.0568749530078135e-08 0.0 -0.9999999999999991 1.2246467991473522e-16
751287821.9554888 -0.9999999999999991 1.2246467991473522e-16 4.073393753818281e-08 0.0 4.073393753818281e-08 0.0 -0.9999999999999991 1.2246467991473522e-16
751375343.835959 -0.9999999999999991 1.2246467991473522e-16 4.0899911283311236e-08 0.0 4.0899911283311236e-08 0.0 -0.9999999999999991 1.2246467991473522e-16
751462865.7164291 -0.9999999999999991 1.2246467991473522e-16 4.1066675061891816e-08 0.0 4.1066675061891816e-08 0.0 -0.9999999999999991 1.2246467991473522e-16
751550387.5968992 -0.9999999999999991 1.2246467991473522e-16 4.123423319696938e-08 0.0 4.123423319696938e-08 0.0 -0.9999999999999991 1.2246467991473522e-16
751637909.4773693 -0.9999999999999991 1.2246467991473522e-16 4.1402590038390046e-08 0.0 4.1402590038390046e-08 0.0 -0.9999999999999991 1.2246467991473522e-16
751725431.3578395 -0.9999999999999991 1.2246467991473522e-16 4.157174996298635e-08 0.0 4.157174996298635e-08 0.0 -0.9999999999999991 1.2246467991473522e-16
751812953.2383095 -0.9999999999999991 1.2246467991473522e-16 4.174171737476493e-08 0.0 4.174171737476493e-08 0.0 -0.9999999999999991 1.2246467991473522e-16
751900475.1187797 -0.9999999999999991 1.2246467991473522e-16 4.191249670509676e-08 0.0 4.191249670509676e-08 0.0 -0.9999999999999991 1.2246467991473522e-16
751987996.9992498 -0.9999999999999991 1.2246467991473522e-16 4.208409241290437e-08 0.0 4.208409241290437e-08 0.0 -0.9999999999999991 1.2246467991473522e-16
752075518.8797199 -0.9999999999999991 1.2246467991473522e-16 4.225650898485598e-08 0.0 4.225650898485598e-08 0.0 -0.9999999999999991 1.2246467991473522e-16
752163040.76019 -0.9999999999999991 1.2246467991473522e-16 4.242975093555847e-08 0.0 4.242975093555847e-08 0.0 -0.9999999999999991 1.2246467991473522e-16
752250562.6406602 -0.9999999999999991 1.2246467991473522e-16 4.2603822807751065e-08 0.0 4.2603822807751065e-08 0.0 -0.9999999999999991 1.2246467991473522e-16
752338084.5211303 -0.9999999999999991 1.2246467991473522e-16 4.277872917250164e-08 0.0 4.277872917250164e-08 0.0 -0.9999999999999991 1.2246467991473522e-16
752425606.4016004 -0.999999999999999 1.224646799147352e-16 4.2954474629405355e-08 0.0 4.2954474629405355e-08 0.0 -0.999999999999999 1.224646799147352e-16
752513128.2820705 -0.999999999999999 1.224646799147352e-16 4.3131063806783074e-08 0.0 4.3131063806783074e-08 0.0 -0.999999999999999 1.224646799147352e-16
752600650.1625407 -0.999999999999999 1.224646799147352e-16 4.330850136188248e-08 0.0 4.330850136188248e-08 0.0 -0.999999999999999 1.224646799147352e-16
752688172.0430107 -0.999999999999999 1.224646799147352e-16 4.3486791981079895e-08 0.0 4.3486791981079895e-08 0.0 -0.999999999999999 1.224646799147352e-16
752775693.9234809 -0.999999999999999 1.224646799147352e-16 4.366594038008506e-08 0.0 4.366594038008506e-08 0.0 -0.999999999999999 1.224646799147352e-16
752863215.803951 -0.999999999999999 1.224646799147352e-16 4.384595130414548e-08 0.0 4.384595130414548e-08 0.0 -0.999999999999999 1.224646799147352e-16
752950737.6844211 -0.999999999999999 1.224646799147352e-16 4.4026829528253834e-08 0.0 4.4026829528253834e-08 0.0 -0.999999999999999 1.224646799147352e-16
753038259.5648912 -0.999999999999999 1.224646799147352e-16 4.420857985735839e-08 0.0 4.420857985735839e-08 0.0 -0.999999999999999 1.224646799147352e-16
753125781.4453614 -0.999999999999999 1.224646799147352e-16 4.439120712656957e-08 0.0 4.439120712656957e-08 0.0 -0.999999999999999 1.224646799147352e-16
753213303.3258315 -0.999999999999999 1.224646799147352e-16 4.457471620137555e-08 0.0 4.457471620137555e-08 0.0 -0.999999999999999 1.224646799147352e-16
753300825.2063016 -0.999999999999999 1.224646799147352e-16 4.475911197785329e-08 0.0 4.475911197785329e-08 0.0 -0.999999999999999 1.224646799147352e-16
753388347.0867717 -0.999999999999999 1.224646799147352e-16 4.494439938288618e-08 0.0 4.494439938288618e-08 0.0 -0.999999999999999 1.224646799147352e-16
753475868.9672419 -0.999999999999999 1.224646799147352e-16 4.513058337437799e-08 0.0 4.513058337437799e-08 0.0 -0.999999999999999 1.224646799147352e-16
753563390.8477119 -0.999999999999999 1.224646799147352e-16 4.531766894147367e-08 0.0 4.531766894147367e-08 0.0 -0.999999999999999 1.224646799147352e-16
753650912.728182 -0.9999999999999989 1.2246467991473517e-16 4.5505661104779046e-08 0.0 4.5505661104779046e-08 0.0 -0.9999999999999989 1.2246467991473517e-16
753738434.6086521 -0.9999999999999989 1.2246467991473517e-16 4.5694564916583286e-08 0.0 4.5694564916583286e-08 0.0 -0.9999999999999989 1.2246467991473517e-16
753825956.4891222 -0.9999999999999989 1.2246467991473517e-16 4.588438546108066e-08 0.0 4.588438546108066e-08 0.0 -0.9999999999999989 1.2246467991473517e-16
753913478.3695923 -0.9999999999999989 1.2246467991473517e-16 4.6075127854599524e-08 0.0 4.6075127854599524e-08 0.0 -0.9999999999999989 1.2246467991473517e-16
754001000.2500625 -0.9999999999999989 1.2246467991473517e-16 4.626679724582603e-08 0.0 4.626679724582603e-08 0.0 -0.9999999999999989 1.2246467991473517e-16
754088522.1305326 -0.9999999999999989 1.2246467991473517e-16 4.6459398816035294e-08 0.0 4.6459398816035294e-08 0.0 -0.9999999999999989 1.2246467991473517e-16
754176044.0110027 -0.9999999999999989 1.2246467991473517e-16 4.665293777932172e-08 0.0 4.665293777932172e-08 0.0 -0.9999999999999989 1.2246467991473517e-16
754263565.8914728 -0.9999999999999989 1.2246467991473517e-16 4.68474193828318e-08 0.0 4.68474193828318e-08 0.0 -0.9999999999999989 1.2246467991473517e-16
754351087.771943 -0.9999999999999989 1.2246467991473517e-16 4.704284890699824e-08 0.0 4.704284890699824e-08 0.0 -0.9999999999999989 1.2246467991473517e-16
754438609.652413 -0.9999999999999989 1.2246467991473517e-16 4.723923166577624e-08 0.0 4.723923166577624e-08 0.0 -0.9999999999999989 1.2246467991473517e-16
754526131.5328832 -0.9999999999999989 1.2246467991473517e-16 4.743657300688284e-08 0.0 4.743657300688284e-08 0.0 -0.9999999999999989 1.2246467991473517e-16
754613653.4133533 -0.9999999999999989 1.2246467991473517e-16 4.76348783120352e-08 0.0 4.76348783120352e-08 0.0 -0.9999999999999989 1.2246467991473517e-16
754701175.2938234 -0.9999999999999988 1.2246467991473517e-16 4.7834152997193385e-08 0.0 4.7834152997193385e-08 0.0 -0.9999999999999988 1.2246467991473517e-16
754788697.1742935 -0.9999999999999988 1.2246467991473517e-16 4.8034402512805255e-08 0.0 4.8034402512805255e-08 0.0 -0.9999999999999988 1.2246467991473517e-16
754876219.0547637 -0.9999999999999988 1.2246467991473517e-16 4.8235632344050137e-08 0.0 4.8235632344050137e-08 0.0 -0.9999999999999988 1.2246467991473517e-16
754963740.9352338 -0.9999999999999988 1.2246467991473517e-16 4.843784801108797e-08 0.0 4.843784801108797e-08 0.0 -0.9999999999999988 1.2246467991473517e-16
755051262.8157039 -0.9999999999999988 1.2246467991473517e-16 4.8641055069308874e-08 0.0 4.8641055069308874e-08 0.0 -0.9999999999999988 1.2246467991473517e-16
755138784.696174 -0.9999999999999988 1.2246467991473517e-16 4.884525910958484e-08 0.0 4.884525910958484e-08 0.0 -0.9999999999999988 1.2246467991473517e-16
755226306.5766442 -0.9999999999999988 1.2246467991473517e-16 4.905046575852239e-08 0.0 4.905046575852239e-08 0.0 -0.9999999999999988 1.2246467991473517e-16
755313828.4571142 -0.9999999999999988 1.2246467991473517e-16 4.9256680678719374e-08 0.0 4.9256680678719374e-08 0.0 -0.9999999999999988 1.2246467991473517e-16
755401350.3375844 -0.9999999999999988 1.2246467991473517e-16 4.946390956902231e-08 0.0 4.946390956902231e-08 0.0 -0.9999999999999988 1.2246467991473517e-16
755488872.2180545 -0.9999999999999988 1.2246467991473517e-16 4.967215816478641e-08 0.0 4.967215816478641e-08 0.0 -0.9999999999999988 1.2246467991473517e-16
755576394.0985246 -0.9999999999999988 1.2246467991473517e-16 4.988143223813524e-08 0.0 4.988143223813524e-08 0.0 -0.9999999999999988 1.2246467991473517e-16
755663915.9789947 -0.9999999999999987 1.2246467991473515e-16 5.009173759822923e-08 0.0 5.009173759822923e-08 0.0 -0.9999999999999987 1.2246467991473515e-16
755751437.8594649 -0.9999999999999987 1.2246467991473515e-16 5.030308009152582e-08 0.0 5.030308009152582e-08 0.0 -0.9999999999999987 1.2246467991473515e-16
755838959.7399349 -0.9999999999999987 1.2246467991473515e-16 5.0515465602052204e-08 0.0 5.0515465602052204e-08 0.0 -0.9999999999999987 1.2246467991473515e-16
755926481.6204051 -0.9999999999999987 1.2246467991473515e-16 5.0728900051672674e-08 0.0 5.0728900051672674e-08 0.0 -0.9999999999999987 1.2246467991473515e-16
756014003.5008752 -0.9999999999999987 1.2246467991473515e-16 5.0943389400363526e-08 0.0 5.0943389400363526e-08 0.0 -0.9999999999999987 1.2246467991473515e-16
756101525.3813454 -0.9999999999999987 1.2246467991473515e-16 5.115893964648434e-08 0.0 5.115893964648434e-08 0.0 -0.9999999999999987 1.2246467991473515e-16
756189047.2618154 -0.9999999999999987 1.2246467991473515e-16 5.1375556827057085e-08 0.0 5.1375556827057085e-08 0.0 -0.9999999999999987 1.2246467991473515e-16
756276569.1422856 -0.9999999999999987 1.2246467991473515e-16 5.159324701804554e-08 0.0 5.159324701804554e-08 0.0 -0.9999999999999987 1.2246467991473515e-16
756364091.0227557 -0.9999999999999987 1.2246467991473515e-16 5.181201633463411e-08 0.0 5.181201633463411e-08 0.0 -0.9999999999999987 1.2246467991473515e-16
756451612.9032258 -0.9999999999999987 1.2246467991473515e-16 5.203187093151252e-08 0.0 5.203187093151252e-08 0.0 -0.9999999999999987 1.2246467991473515e-16
756539134.7836959 -0.9999999999999986 1.2246467991473515e-16 5.225281700316191e-08 0.0 5.225281700316191e-08 0.0 -0.9999999999999986 1.2246467991473515e-16
756626656.6641661 -0.9999999999999986 1.2246467991473515e-16 5.2474860784142697e-08 0.0 5.2474860784142697e-08 0.0 -0.9999999999999986 1.2246467991473515e-16
756714178.5446361 -0.9999999999999986 1.2246467991473515e-16 5.269800854938251e-08 0.0 5.269800854938251e-08 0.0 -0.9999999999999986 1.2246467991473515e-16
756801700.4251062 -0.9999999999999986 1.2246467991473515e-16 5.2922266614473415e-08 0.0 5.2922266614473415e-08 0.0 -0.9999999999999986 1.2246467991473515e-16
756889222.3055763 -0.9999999999999986 1.2246467991473515e-16 5.314764133596253e-08 0.0 5.314764133596253e-08 0.0 -0.9999999999999986 1.2246467991473515e-16
756976744.1860465 -0.9999999999999986 1.2246467991473515e-16 5.337413911165166e-08 0.0 5.337413911165166e-08 0.0 -0.9999999999999986 1.2246467991473515e-16
757064266.0665165 -0.9999999999999986 1.2246467991473515e-16 5.36017663808953e-08 0.0 5.36017663808953e-08 0.0 -0.9999999999999986 1.2246467991473515e-16
757151787.9469867 -0.9999999999999986 1.2246467991473515e-16 5.383052962490527e-08 0.0 5.383052962490527e-08 0.0 -0.9999999999999986 1.2246467991473515e-16
757239309.8274568 -0.9999999999999986 1.2246467991473515e-16 5.406043536705313e-08 0.0 5.406043536705313e-08 0.0 -0.9999999999999986 1.2246467991473515e-16
757326831.7079269 -0.9999999999999984 1.2246467991473512e-16 5.4291490173177074e-08 0.0 5.4291490173177074e-08 0.0 -0.9999999999999984 1.2246467991473512e-16
757414353.588397 -0.9999999999999984 1.2246467991473512e-16 5.452370065189361e-08 0.0 5.452370065189361e-08 0.0 -0.9999999999999984 1.2246467991473512e-16
757501875.4688672 -0.9999999999999984 1.2246467991473512e-16 5.475707345490729e-08 0.0 5.475707345490729e-08 0.0 -0.9999999999999984 1.2246467991473512e-16
757589397.3493372 -0.9999999999999984 1.2246467991473512e-16 5.499161527732589e-08 0.0 5.499161527732589e-08 0.0 -0.9999999999999984 1.2246467991473512e-16
757676919.2298074 -0.9999999999999984 1.2246467991473512e-16 5.522733285797849e-08 0.0 5.522733285797849e-08 0.0 -0.9999999999999984 1.2246467991473512e-16
757764441.1102775 -0.9999999999999984 1.2246467991473512e-16 5.546423297973318e-08 0.0 5.546423297973318e-08 0.0 -0.9999999999999984 1.2246467991473512e-16
757851962.9907477 -0.9999999999999984 1.2246467991473512e-16 5.570232246982105e-08 0.0 5.570232246982105e-08 0.0 -0.9999999999999984 1.2246467991473512e-16
757939484.8712177 -0.9999999999999984 1.2246467991473512e-16 5.594160820015889e-08 0.0 5.594160820015889e-08 0.0 -0.9999999999999984 1.2246467991473512e-16
758027006.7516879 -0.9999999999999984 1.2246467991473512e-16 5.6182097087680014e-08 0.0 5.6182097087680014e-08 0.0 -0.9999999999999984 1.2246467991473512e-16
758114528.632158 -0.9999999999999983 1.2246467991473512e-16 5.6423796094660846e-08 0.0 5.6423796094660846e-08 0.0 -0.9999999999999983 1.2246467991473512e-16
758202050.5126281 -0.9999999999999983 1.2246467991473512e-16 5.6666712229055445e-08 0.0 5.6666712229055445e-08 0.0 -0.9999999999999983 1.2246467991473512e-16
758289572.3930982 -0.9999999999999983 1.2246467991473512e-16 5.6910852544831045e-08 0.0 5.6910852544831045e-08 0.0 -0.9999999999999983 1.2246467991473512e-16
758377094.2735684 -0.9999999999999983 1.2246467991473512e-16 5.715622414230523e-08 0.0 5.715622414230523e-08 0.0 -0.9999999999999983 1.2246467991473512e-16
758464616.1540384 -0.9999999999999983 1.2246467991473512e-16 5.740283416848857e-08 0.0 5.740283416848857e-08 0.0 -0.9999999999999983 1.2246467991473512e-16
758552138.0345086 -0.9999999999999983 1.2246467991473512e-16 5.765068981742662e-08 0.0 5.765068981742662e-08 0.0 -0.9999999999999983 1.2246467991473512e-16
758639659.9149787 -0.9999999999999983 1.2246467991473512e-16 5.789979833054776e-08 0.0 5.789979833054776e-08 0.0 -0.9999999999999983 1.2246467991473512e-16
758727181.7954489 -0.9999999999999983 1.2246467991473512e-16 5.815016699701166e-08 0.0 5.815016699701166e-08 0.0 -0.9999999999999983 1.2246467991473512e-16
758814703.6759189 -0.9999999999999982 1.224646799147351e-16 5.84018031540617e-08 0.0 5.84018031540617e-08 0.0 -0.9999999999999982 1.224646799147351e-16
758902225.5563891 -0.9999999999999982 1.224646799147351e-16 5.865471418738121e-08 0.0 5.865471418738121e-08 0.0 -0.9999999999999982 1.224646799147351e-16
758989747.4368593 -0.9999999999999982 1.224646799147351e-16 5.890890753145004e-08 0.0 5.890890753145004e-08 0.0 -0.9999999999999982 1.224646799147351e-16
759077269.3173293 -0.9999999999999982 1.224646799147351e-16 5.916439066990538e-08 0.0 5.916439066990538e-08 0.0 -0.9999999999999982 1.224646799147351e-16
759164791.1977994 -0.9999999999999982 1.224646799147351e-16 5.942117113590789e-08 0.0 5.942117113590789e-08 0.0 -0.9999999999999982 1.224646799147351e-16
759252313.0782696 -0.9999999999999982 1.224646799147351e-16 5.96792565125058e-08 0.0 5.96792565125058e-08 0.0 -0.9999999999999982 1.224646799147351e-16
759339834.9587396 -0.9999999999999982 1.224646799147351e-16 5.993865443300607e-08 0.0 5.993865443300607e-08 0.0 -0.9999999999999982 1.224646799147351e-16
759427356.8392098 -0.9999999999999981 1.224646799147351e-16 6.019937258134798e-08 0.0 6.019937258134798e-08 0.0 -0.9999999999999981 1.224646799147351e-16
759514878.71968 -0.9999999999999981 1.224646799147351e-16 6.046141869247808e-08 0.0 6.046141869247808e-08 0.0 -0.9999999999999981 1.224646799147351e-16
759602400.6001501 -0.9999999999999981 1.224646799147351e-16 6.072480055272957e-08 0.0 6.072480055272957e-08 0.0 -0.9999999999999981 1.224646799147351e-16
759689922.4806201 -0.9999999999999981 1.224646799147351e-16 6.098952600020462e-08 0.0 6.098952600020462e-08 0.0 -0.9999999999999981 1.224646799147351e-16
759777444.3610903 -0.9999999999999981 1.224646799147351e-16 6.125560292516018e-08 0.0 6.125560292516018e-08 0.0 -0.9999999999999981 1.224646799147351e-16
759864966.2415605 -0.9999999999999981 1.224646799147351e-16 6.152303927039556e-08 0.0 6.152303927039556e-08 0.0 -0.9999999999999981 1.224646799147351e-16
759952488.1220305 -0.9999999999999981 1.224646799147351e-16 6.179184303164433e-08 0.0 6.179184303164433e-08 0.0 -0.9999999999999981 1.224646799147351e-16
760040010.0025007 -0.999999999999998 1.2246467991473507e-16 6.206202225797118e-08 0.0 6.206202225797118e-08 0.0 -0.999999999999998 1.2246467991473507e-16
760127531.8829707 -0.999999999999998 1.2246467991473507e-16 6.233358505216663e-08 0.0 6.233358505216663e-08 0.0 -0.999999999999998 1.2246467991473507e-16
760215053.7634407 -0.999999999999998 1.2246467991473507e-16 6.260653957115248e-08 0.0 6.260653957115248e-08 0.0 -0.999999999999998 1.2246467991473507e-16
760302575.6439109 -0.999999999999998 1.2246467991473507e-16 6.28808940263842e-08 0.0 6.28808940263842e-08 0.0 -0.999999999999998 1.2246467991473507e-16
760390097.524381 -0.999999999999998 1.2246467991473507e-16 6.315665668425938e-08 0.0 6.315665668425938e-08 0.0 -0.999999999999998 1.2246467991473507e-16
760477619.4048512 -0.999999999999998 1.2246467991473507e-16 6.343383586652967e-08 0.0 6.343383586652967e-08 0.0 -0.999999999999998 1.2246467991473507e-16
760565141.2853212 -0.9999999999999979 1.2246467991473507e-16 6.371243995071617e-08 0.0 6.371243995071617e-08 0.0 -0.9999999999999979 1.2246467991473507e-16
760652663.1657914 -0.9999999999999979 1.2246467991473507e-16 6.399247737052848e-08 0.0 6.399247737052848e-08 0.0 -0.9999999999999979 1.2246467991473507e-16
760740185.0462615 -0.9999999999999979 1.2246467991473507e-16 6.427395661628425e-08 0.0 6.427395661628425e-08 0.0 -0.9999999999999979 1.2246467991473507e-16
760827706.9267316 -0.9999999999999979 1.2246467991473507e-16 6.455688623533709e-08 0.0 6.455688623533709e-08 0.0 -0.9999999999999979 1.2246467991473507e-16
760915228.8072017 -0.9999999999999979 1.2246467991473507e-16 6.484127483250453e-08 0.0 6.484127483250453e-08 0.0 -0.9999999999999979 1.2246467991473507e-16
761002750.6876719 -0.9999999999999979 1.2246467991473507e-16 6.512713107050106e-08 0.0 6.512713107050106e-08 0.0 -0.9999999999999979 1.2246467991473507e-16
761090272.5681419 -0.9999999999999978 1.2246467991473505e-16 6.541446367037294e-08 0.0 6.541446367037294e-08 0.0 -0.9999999999999978 1.2246467991473505e-16
761177794.4486121 -0.9999999999999978 1.2246467991473505e-16 6.57032814119406e-08 0.0 6.57032814119406e-08 0.0 -0.9999999999999978 1.2246467991473505e-16
761265316.3290823 -0.9999999999999978 1.2246467991473505e-16 6.599359313423991e-08 0.0 6.599359313423991e-08 0.0 -0.9999999999999978 1.2246467991473505e-16
761352838.2095524 -0.9999999999999978 1.2246467991473505e-16 6.628540773596953e-08 0.0 6.628540773596953e-08 0.0 -0.9999999999999978 1.2246467991473505e-16
761440360.0900224 -0.9999999999999978 1.2246467991473505e-16 6.65787341759436e-08 0.0 6.65787341759436e-08 0.0 -0.9999999999999978 1.2246467991473505e-16
761527881.9704926 -0.9999999999999978 1.2246467991473505e-16 6.687358147354472e-08 0.0 6.687358147354472e-08 0.0 -0.9999999999999978 1.2246467991473505e-16
761615403.8509628 -0.9999999999999977 1.2246467991473502e-16 6.716995870918301e-08 0.0 6.716995870918301e-08 0.0 -0.9999999999999977 1.2246467991473502e-16
761702925.7314328 -0.9999999999999977 1.2246467991473502e-16 6.746787502475929e-08 0.0 6.746787502475929e-08 0.0 -0.9999999999999977 1.2246467991473502e-16
761790447.611903 -0.9999999999999977 1.2246467991473502e-16 6.77673396241303e-08 0.0 6.77673396241303e-08 0.0 -0.9999999999999977 1.2246467991473502e-16
761877969.4923731 -0.9999999999999977 1.2246467991473502e-16 6.806836177357879e-08 0.0 6.806836177357879e-08 0.0 -0.9999999999999977 1.2246467991473502e-16
761965491.3728431 -0.9999999999999977 1.2246467991473502e-16 6.837095080228801e-08 0.0 6.837095080228801e-08 0.0 -0.9999999999999977 1.2246467991473502e-16
762053013.2533133 -0.9999999999999977 1.2246467991473502e-16 6.86751161028219e-08 0.0 6.86751161028219e-08 0.0 -0.9999999999999977 1.2246467991473502e-16
762140535.1337835 -0.9999999999999976 1.2246467991473502e-16 6.898086713160264e-08 0.0 6.898086713160264e-08 0.0 -0.9999999999999976 1.2246467991473502e-16
762228057.0142536 -0.9999999999999976 1.2246467991473502e-16 6.928821340940127e-08 0.0 6.928821340940127e-08 0.0 -0.9999999999999976 1.2246467991473502e-16
762315578.8947237 -0.9999999999999976 1.2246467991473502e-16 6.95971645218254e-08 0.0 6.95971645218254e-08 0.0 -0.9999999999999976 1.2246467991473502e-16
762403100.7751938 -0.9999999999999976 1.2246467991473502e-16 6.990773011981517e-08 0.0 6.990773011981517e-08 0.0 -0.9999999999999976 1.2246467991473502e-16
762490622.655664 -0.9999999999999976 1.2246467991473502e-16 7.021991992014123e-08 0.0 7.021991992014123e-08 0.0 -0.9999999999999976 1.2246467991473502e-16
762578144.536134 -0.9999999999999974 1.22464679914735e-16 7.05337437059066e-08 0.0 7.05337437059066e-08 0.0 -0.9999999999999974 1.22464679914735e-16
762665666.4166042 -0.9999999999999974 1.22464679914735e-16 7.084921132705705e-08 0.0 7.084921132705705e-08 0.0 -0.9999999999999974 1.22464679914735e-16
762753188.2970743 -0.9999999999999974 1.22464679914735e-16 7.11663327008872e-08 0.0 7.11663327008872e-08 0.0 -0.9999999999999974 1.22464679914735e-16
762840710.1775444 -0.9999999999999974 1.22464679914735e-16 7.148511781256157e-08 0.0 7.148511781256157e-08 0.0 -0.9999999999999974 1.22464679914735e-16
762928232.0580145 -0.9999999999999974 1.22464679914735e-16 7.180557671563266e-08 0.0 7.180557671563266e-08 0.0 -0.9999999999999974 1.22464679914735e-16
763015753.9384847 -0.9999999999999973 1.22464679914735e-16 7.212771953256366e-08 0.0 7.212771953256366e-08 0.0 -0.9999999999999973 1.22464679914735e-16
763103275.8189547 -0.9999999999999973 1.22464679914735e-16 7.245155645526005e-08 0.0 7.245155645526005e-08 0.0 -0.9999999999999973 1.22464679914735e-16
763190797.6994247 -0.9999999999999973 1.22464679914735e-16 7.277709774560144e-08 0.0 7.277709774560144e-08 0.0 -0.9999999999999973 1.22464679914735e-16
763278319.5798949 -0.9999999999999973 1.22464679914735e-16 7.310435373598246e-08 0.0 7.310435373598246e-08 0.0 -0.9999999999999973 1.22464679914735e-16
763365841.460365 -0.9999999999999972 1.2246467991473498e-16 7.343333482984959e-08 0.0 7.343333482984959e-08 0.0 -0.9999999999999972 1.2246467991473498e-16
763453363.3408351 -0.9999999999999972 1.2246467991473498e-16 7.376405150225503e-08 0.0 7.376405150225503e-08 0.0 -0.9999999999999972 1.2246467991473498e-16
763540885.2213053 -0.9999999999999972 1.2246467991473498e-16 7.40965143004052e-08 0.0 7.40965143004052e-08 0.0 -0.9999999999999972 1.2246467991473498e-16
763628407.1017754 -0.9999999999999972 1.2246467991473498e-16 7.443073384421544e-08 0.0 7.443073384421544e-08 0.0 -0.9999999999999972 1.2246467991473498e-16
763715928.9822454 -0.9999999999999972 1.2246467991473498e-16 7.47667208268756e-08 0.0 7.47667208268756e-08 0.0 -0.9999999999999972 1.2246467991473498e-16
763803450.8627156 -0.9999999999999971 1.2246467991473498e-16 7.510448601541536e-08 0.0 7.510448601541536e-08 0.0 -0.9999999999999971 1.2246467991473498e-16
763890972.7431858 -0.9999999999999971 1.2246467991473498e-16 7.544404025127154e-08 0.0 7.544404025127154e-08 0.0 -0.9999999999999971 1.2246467991473498e-16
763978494.6236559 -0.9999999999999971 1.2246467991473498e-16 7.578539445086919e-08 0.0 7.578539445086919e-08 0.0 -0.9999999999999971 1.2246467991473498e-16
764066016.504126 -0.9999999999999971 1.2246467991473498e-16 7.612855960619782e-08 0.0 7.612855960619782e-08 0.0 -0.9999999999999971 1.2246467991473498e-16
764153538.3845961 -0.999999999999997 1.2246467991473495e-16 7.647354678540147e-08 0.0 7.647354678540147e-08 0.0 -0.999999999999997 1.2246467991473495e-16
764241060.2650663 -0.999999999999997 1.2246467991473495e-16 7.682036713336591e-08 0.0 7.682036713336591e-08 0.0 -0.999999999999997 1.2246467991473495e-16
764328582.1455363 -0.999999999999997 1.2246467991473495e-16 7.716903187231716e-08 0.0 7.716903187231716e-08 0.0 -0.999999999999997 1.2246467991473495e-16
764416104.0260065 -0.999999999999997 1.2246467991473495e-16 7.751955230242186e-08 0.0 7.751955230242186e-08 0.0 -0.999999999999997 1.2246467991473495e-16
764503625.9064766 -0.9999999999999969 1.2246467991473495e-16 7.787193980239255e-08 0.0 7.787193980239255e-08 0.0 -0.9999999999999969 1.2246467991473495e-16
764591147.7869467 -0.9999999999999969 1.2246467991473495e-16 7.822620583010006e-08 0.0 7.822620583010006e-08 0.0 -0.9999999999999969 1.2246467991473495e-16
764678669.6674168 -0.9999999999999969 1.2246467991473495e-16 7.85823619231911e-08 0.0 7.85823619231911e-08 0.0 -0.9999999999999969 1.2246467991473495e-16
764766191.547887 -0.9999999999999969 1.2246467991473495e-16 7.894041969970851e-08 0.0 7.894041969970851e-08 0.0 -0.9999999999999969 1.2246467991473495e-16
764853713.428357 -0.9999999999999968 1.2246467991473493e-16 7.930039085871924e-08 0.0 7.930039085871924e-08 0.0 -0.9999999999999968 1.2246467991473493e-16
764941235.3088272 -0.9999999999999968 1.2246467991473493e-16 7.966228718094952e-08 0.0 7.966228718094952e-08 0.0 -0.9999999999999968 1.2246467991473493e-16
765028757.1892973 -0.9999999999999968 1.2246467991473493e-16 8.002612052941958e-08 0.0 8.002612052941958e-08 0.0 -0.9999999999999968 1.2246467991473493e-16
765116279.0697675 -0.9999999999999968 1.2246467991473493e-16 8.03919028500903e-08 0.0 8.03919028500903e-08 0.0 -0.9999999999999968 1.2246467991473493e-16
765203800.9502375 -0.9999999999999967 1.224646799147349e-16 8.075964617251058e-08 0.0 8.075964617251058e-08 0.0 -0.9999999999999967 1.224646799147349e-16
765291322.8307077 -0.9999999999999967 1.224646799147349e-16 8.112936261047598e-08 0.0 8.112936261047598e-08 0.0 -0.9999999999999967 1.224646799147349e-16
765378844.7111778 -0.9999999999999967 1.224646799147349e-16 8.150106436268413e-08 0.0 8.150106436268413e-08 0.0 -0.9999999999999967 1.224646799147349e-16
765466366.5916479 -0.9999999999999967 1.224646799147349e-16 8.1874763713407e-08 0.0 8.1874763713407e-08 0.0 -0.9999999999999967 1.224646799147349e-16
765553888.472118 -0.9999999999999966 1.224646799147349e-16 8.225047303315932e-08 0.0 8.225047303315932e-08 0.0 -0.9999999999999966 1.224646799147349e-16
765641410.3525882 -0.9999999999999966 1.224646799147349e-16 8.262820477937838e-08 0.0 8.262820477937838e-08 0.0 -0.9999999999999966 1.224646799147349e-16
765728932.2330582 -0.9999999999999966 1.224646799147349e-16 8.300797149710714e-08 0.0 8.300797149710714e-08 0.0 -0.9999999999999966 1.224646799147349e-16
765816454.1135284 -0.9999999999999964 1.2246467991473488e-16 8.33897858196867e-08 0.0 8.33897858196867e-08 0.0 -0.9999999999999964 1.2246467991473488e-16
765903975.9939985 -0.9999999999999964 1.2246467991473488e-16 8.377366046944897e-08 0.0 8.377366046944897e-08 0.0 -0.9999999999999964 1.2246467991473488e-16
765991497.8744687 -0.9999999999999964 1.2246467991473488e-16 8.415960825842131e-08 0.0 8.415960825842131e-08 0.0 -0.9999999999999964 1.2246467991473488e-16
766079019.7549387 -0.9999999999999964 1.2246467991473488e-16 8.454764208903367e-08 0.0 8.454764208903367e-08 0.0 -0.9999999999999964 1.2246467991473488e-16
766166541.6354089 -0.9999999999999963 1.2246467991473488e-16 8.493777495483526e-08 0.0 8.493777495483526e-08 0.0 -0.9999999999999963 1.2246467991473488e-16
766254063.515879 -0.9999999999999963 1.2246467991473488e-16 8.533001994121225e-08 0.0 8.533001994121225e-08 0.0 -0.9999999999999963 1.2246467991473488e-16
766341585.3963491 -0.9999999999999963 1.2246467991473488e-16 8.572439022611594e-08 0.0 8.572439022611594e-08 0.0 -0.9999999999999963 1.2246467991473488e-16
766429107.2768192 -0.9999999999999962 1.2246467991473485e-16 8.612089908079809e-08 0.0 8.612089908079809e-08 0.0 -0.9999999999999962 1.2246467991473485e-16
766516629.1572894 -0.9999999999999962 1.2246467991473485e-16 8.651955987054911e-08 0.0 8.651955987054911e-08 0.0 -0.9999999999999962 1.2246467991473485e-16
766604151.0377594 -0.9999999999999962 1.2246467991473485e-16 8.692038605544283e-08 0.0 8.692038605544283e-08 0.0 -0.9999999999999962 1.2246467991473485e-16
766691672.9182296 -0.9999999999999961 1.2246467991473485e-16 8.732339119109455e-08 0.0 8.732339119109455e-08 0.0 -0.9999999999999961 1.2246467991473485e-16
766779194.7986996 -0.9999999999999961 1.2246467991473485e-16 8.772858892941413e-08 0.0 8.772858892941413e-08 0.0 -0.9999999999999961 1.2246467991473485e-16
766866716.6791698 -0.9999999999999961 1.2246467991473485e-16 8.813599301937956e-08 0.0 8.813599301937956e-08 0.0 -0.9999999999999961 1.2246467991473485e-16
766954238.5596398 -0.999999999999996 1.2246467991473483e-16 8.854561730780298e-08 0.0 8.854561730780298e-08 0.0 -0.999999999999996 1.2246467991473483e-16
767041760.44011 -0.999999999999996 1.2246467991473483e-16 8.895747574011573e-08 0.0 8.895747574011573e-08 0.0 -0.999999999999996 1.2246467991473483e-16
767129282.3205801 -0.999999999999996 1.2246467991473483e-16 8.937158236115237e-08 0.0 8.937158236115237e-08 0.0 -0.999999999999996 1.2246467991473483e-16
767216804.2010502 -0.9999999999999959 1.2246467991473483e-16 8.978795131594414e-08 0.0 8.978795131594414e-08 0.0 -0.9999999999999959 1.2246467991473483e-16
767304326.0815203 -0.9999999999999959 1.2246467991473483e-16 9.02065968505243e-08 0.0 9.02065968505243e-08 0.0 -0.9999999999999959 1.2246467991473483e-16
767391847.9619905 -0.9999999999999959 1.2246467991473483e-16 9.062753331272925e-08 0.0 9.062753331272925e-08 0.0 -0.9999999999999959 1.2246467991473483e-16
767479369.8424605 -0.9999999999999958 1.224646799147348e-16 9.105077515301742e-08 0.0 9.105077515301742e-08 0.0 -0.9999999999999958 1.224646799147348e-16
767566891.7229307 -0.9999999999999958 1.224646799147348e-16 9.147633692529372e-08 0.0 9.147633692529372e-08 0.0 -0.9999999999999958 1.224646799147348e-16
767654413.6034008 -0.9999999999999958 1.224646799147348e-16 9.190423328773221e-08 0.0 9.190423328773221e-08 0.0 -0.9999999999999958 1.224646799147348e-16
767741935.483871 -0.9999999999999957 1.2246467991473478e-16 9.233447900362023e-08 0.0 9.233447900362023e-08 0.0 -0.9999999999999957 1.2246467991473478e-16
767829457.364341 -0.9999999999999957 1.2246467991473478e-16 9.276708894219797e-08 0.0 9.276708894219797e-08 0.0 -0.9999999999999957 1.2246467991473478e-16
767916979.2448112 -0.9999999999999957 1.2246467991473478e-16 9.320207807951357e-08 0.0 9.320207807951357e-08 0.0 -0.9999999999999957 1.2246467991473478e-16
768004501.1252813 -0.9999999999999956 1.2246467991473478e-16 9.363946149928008e-08 0.0 9.363946149928008e-08 0.0 -0.9999999999999956 1.2246467991473478e-16
768092023.0057514 -0.9999999999999956 1.2246467991473478e-16 9.407925439374345e-08 0.0 9.407925439374345e-08 0.0 -0.9999999999999956 1.2246467991473478e-16
768179544.8862215 -0.9999999999999956 1.2246467991473478e-16 9.45214720645586e-08 0.0 9.45214720645586e-08 0.0 -0.9999999999999956 1.2246467991473478e-16
768267066.7666917 -0.9999999999999954 1.2246467991473475e-16 9.496612992367116e-08 0.0 9.496612992367116e-08 0.0 -0.9999999999999954 1.2246467991473475e-16
768354588.6471617 -0.9999999999999954 1.2246467991473475e-16 9.541324349420671e-08 0.0 9.541324349420671e-08 0.0 -0.9999999999999954 1.2246467991473475e-16
768442110.5276319 -0.9999999999999953 1.2246467991473475e-16 9.586282841137191e-08 0.0 9.586282841137191e-08 0.0 -0.9999999999999953 1.2246467991473475e-16
768529632.408102 -0.9999999999999953 1.2246467991473475e-16 9.631490042335973e-08 0.0 9.631490042335973e-08 0.0 -0.9999999999999953 1.2246467991473475e-16
768617154.2885722 -0.9999999999999953 1.2246467991473475e-16 9.676947539226436e-08 0.0 9.676947539226436e-08 0.0 -0.9999999999999953 1.2246467991473475e-16
768704676.1690422 -0.9999999999999952 1.2246467991473473e-16 9.722656929500268e-08 0.0 9.722656929500268e-08 0.0 -0.9999999999999952 1.2246467991473473e-16
768792198.0495124 -0.9999999999999952 1.2246467991473473e-16 9.768619822425012e-08 0.0 9.768619822425012e-08 0.0 -0.9999999999999952 1.2246467991473473e-16
768879719.9299825 -0.9999999999999951 1.2246467991473473e-16 9.81483783893749e-08 0.0 9.81483783893749e-08 0.0 -0.9999999999999951 1.2246467991473473e-16
768967241.8104526 -0.9999999999999951 1.2246467991473473e-16 9.86131261173872e-08 0.0 9.86131261173872e-08 0.0 -0.9999999999999951 1.2246467991473473e-16
769054763.6909227 -0.9999999999999951 1.2246467991473473e-16 9.908045785389998e-08 0.0 9.908045785389998e-08 0.0 -0.9999999999999951 1.2246467991473473e-16
769142285.5713929 -0.999999999999995 1.224646799147347e-16 9.95503901640896e-08 0.0 9.95503901640896e-08 0.0 -0.999999999999995 1.224646799147347e-16
769229807.4518629 -0.999999999999995 1.224646799147347e-16 1.0002293973366982e-07 0.0 1.0002293973366982e-07 0.0 -0.999999999999995 1.224646799147347e-16
769317329.3323331 -0.9999999999999949 1.224646799147347e-16 1.0049812336987917e-07 0.0 1.0049812336987917e-07 0.0 -0.9999999999999949 1.224646799147347e-16
769404851.2128032 -0.9999999999999949 1.224646799147347e-16 1.0097595800246714e-07 0.0 1.0097595800246714e-07 0.0 -0.9999999999999949 1.224646799147347e-16
769492373.0932733 -0.9999999999999948 1.2246467991473468e-16 1.0145646068469563e-07 0.0 1.0145646068469563e-07 0.0 -0.9999999999999948 1.2246467991473468e-16
769579894.9737433 -0.9999999999999948 1.2246467991473468e-16 1.0193964859435275e-07 0.0 1.0193964859435275e-07 0.0 -0.9999999999999948 1.2246467991473468e-16
769667416.8542135 -0.9999999999999948 1.2246467991473468e-16 1.0242553903476859e-07 0.0 1.0242553903476859e-07 0.0 -0.9999999999999948 1.2246467991473468e-16
769754938.7346836 -0.9999999999999947 1.2246467991473468e-16 1.0291414943584108e-07 0.0 1.0291414943584108e-07 0.0 -0.9999999999999947 1.2246467991473468e-16
769842460.6151537 -0.9999999999999947 1.2246467991473468e-16 1.0340549735507724e-07 0.0 1.0340549735507724e-07 0.0 -0.9999999999999947 1.2246467991473468e-16
769929982.4956238 -0.9999999999999946 1.2246467991473466e-16 1.0389960047863835e-07 0.0 1.0389960047863835e-07 0.0 -0.9999999999999946 1.2246467991473466e-16
770017504.376094 -0.9999999999999946 1.2246467991473466e-16 1.043964766223958e-07 0.0 1.043964766223958e-07 0.0 -0.9999999999999946 1.2246467991473466e-16
770105026.256564 -0.9999999999999944 1.2246467991473463e-16 1.0489614373299714e-07 0.0 1.0489614373299714e-07 0.0 -0.9999999999999944 1.2246467991473463e-16
770192548.1370342 -0.9999999999999944 1.2246467991473463e-16 1.0539861988894263e-07 0.0 1.0539861988894263e-07 0.0 -0.9999999999999944 1.2246467991473463e-16
770280070.0175043 -0.9999999999999943 1.2246467991473463e-16 1.0590392330166923e-07 0.0 1.0590392330166923e-07 0.0 -0.9999999999999943 1.2246467991473463e-16
770367591.8979745 -0.9999999999999943 1.2246467991473463e-16 1.0641207231664725e-07 0.0 1.0641207231664725e-07 0.0 -0.9999999999999943 1.2246467991473463e-16
770455113.7784445 -0.9999999999999942 1.224646799147346e-16 1.069230854144849e-07 0.0 1.069230854144849e-07 0.0 -0.9999999999999942 1.224646799147346e-16
770542635.6589147 -0.9999999999999942 1.224646799147346e-16 1.074369812120438e-07 0.0 1.074369812120438e-07 0.0 -0.9999999999999942 1.224646799147346e-16
770630157.5393848 -0.9999999999999941 1.224646799147346e-16 1.0795377846356454e-07 0.0 1.0795377846356454e-07 0.0 -0.9999999999999941 1.224646799147346e-16
770717679.4198549 -0.9999999999999941 1.224646799147346e-16 1.0847349606180267e-07 0.0 1.0847349606180267e-07 0.0 -0.9999999999999941 1.224646799147346e-16
770805201.300325 -0.999999999999994 1.2246467991473458e-16 1.0899615303917573e-07 0.0 1.0899615303917573e-07 0.0 -0.999999999999994 1.2246467991473458e-16
770892723.1807952 -0.999999999999994 1.2246467991473458e-16 1.0952176856891958e-07 0.0 1.0952176856891958e-07 0.0 -0.999999999999994 1.2246467991473458e-16
770980245.0612652 -0.9999999999999939 1.2246467991473458e-16 1.1005036196625381e-07 0.0 1.1005036196625381e-07 0.0 -0.9999999999999939 1.2246467991473458e-16
771067766.9417354 -0.9999999999999939 1.2246467991473458e-16 1.105819526895649e-07 0.0 1.105819526895649e-07 0.0 -0.9999999999999939 1.2246467991473458e-16
771155288.8222055 -0.9999999999999938 1.2246467991473456e-16 1.1111656034159032e-07 0.0 1.1111656034159032e-07 0.0 -0.9999999999999938 1.2246467991473456e-16
771242810.7026757 -0.9999999999999938 1.2246467991473456e-16 1.116542046706206e-07 0.0 1.116542046706206e-07 0.0 -0.9999999999999938 1.2246467991473456e-16
771330332.5831457 -0.9999999999999937 1.2246467991473456e-16 1.1219490557170978e-07 0.0 1.1219490557170978e-07 0.0 -0.9999999999999937 1.2246467991473456e-16
771417854.4636159 -0.9999999999999937 1.2246467991473456e-16 1.1273868308790116e-07 0.0 1.1273868308790116e-07 0.0 -0.9999999999999937 1.2246467991473456e-16
771505376.344086 -0.9999999999999936 1.2246467991473453e-16 1.1328555741145424e-07 0.0 1.1328555741145424e-07 0.0 -0.9999999999999936 1.2246467991473453e-16
771592898.2245561 -0.9999999999999934 1.224646799147345e-16 1.1383554888509423e-07 0.0 1.1383554888509423e-07 0.0 -0.9999999999999934 1.224646799147345e-16
771680420.1050262 -0.9999999999999934 1.224646799147345e-16 1.1438867800326854e-07 0.0 1.1438867800326854e-07 0.0 -0.9999999999999934 1.224646799147345e-16
771767941.9854964 -0.9999999999999933 1.224646799147345e-16 1.1494496541341187e-07 0.0 1.1494496541341187e-07 0.0 -0.9999999999999933 1.224646799147345e-16
771855463.8659664 -0.9999999999999933 1.224646799147345e-16 1.1550443191722826e-07 0.0 1.1550443191722826e-07 0.0 -0.9999999999999933 1.224646799147345e-16
771942985.7464366 -0.9999999999999932 1.2246467991473448e-16 1.1606709847198439e-07 0.0 1.1606709847198439e-07 0.0 -0.9999999999999932 1.2246467991473448e-16
772030507.6269068 -0.9999999999999931 1.2246467991473448e-16 1.1663298619180751e-07 0.0 1.1663298619180751e-07 0.0 -0.9999999999999931 1.2246467991473448e-16
772118029.5073768 -0.9999999999999931 1.2246467991473448e-16 1.1720211634900758e-07 0.0 1.1720211634900758e-07 0.0 -0.9999999999999931 1.2246467991473448e-16
772205551.387847 -0.999999999999993 1.2246467991473446e-16 1.1777451037540137e-07 0.0 1.1777451037540137e-07 0.0 -0.999999999999993 1.2246467991473446e-16
772293073.2683171 -0.999999999999993 1.2246467991473446e-16 1.1835018986365394e-07 0.0 1.1835018986365394e-07 0.0 -0.999999999999993 1.2246467991473446e-16
772380595.1487873 -0.9999999999999929 1.2246467991473446e-16 1.189291765686309e-07 0.0 1.189291765686309e-07 0.0 -0.9999999999999929 1.2246467991473446e-16
772468117.0292573 -0.9999999999999928 1.2246467991473443e-16 1.1951149240876532e-07 0.0 1.1951149240876532e-07 0.0 -0.9999999999999928 1.2246467991473443e-16
772555638.9097275 -0.9999999999999928 1.2246467991473443e-16 1.2009715946743486e-07 0.0 1.2009715946743486e-07 0.0 -0.9999999999999928 1.2246467991473443e-16
772643160.7901976 -0.9999999999999927 1.2246467991473443e-16 1.2068619999435247e-07 0.0 1.2068619999435247e-07 0.0 -0.9999999999999927 1.2246467991473443e-16
772730682.6706676 -0.9999999999999927 1.2246467991473443e-16 1.2127863640697055e-07 0.0 1.2127863640697055e-07 0.0 -0.9999999999999927 1.2246467991473443e-16
772818204.5511378 -0.9999999999999926 1.224646799147344e-16 1.2187449129190045e-07 0.0 1.2187449129190045e-07 0.0 -0.9999999999999926 1.224646799147344e-16
772905726.431608 -0.9999999999999925 1.2246467991473438e-16 1.2247378740633847e-07 0.0 1.2247378740633847e-07 0.0 -0.9999999999999925 1.2246467991473438e-16
772993248.312078 -0.9999999999999925 1.2246467991473438e-16 1.230765476795142e-07 0.0 1.230765476795142e-07 0.0 -0.9999999999999925 1.2246467991473438e-16
773080770.1925482 -0.9999999999999923 1.2246467991473438e-16 1.236827952141455e-07 0.0 1.236827952141455e-07 0.0 -0.9999999999999923 1.2246467991473438e-16
773168292.0730183 -0.9999999999999922 1.2246467991473436e-16 1.2429255328790966e-07 0.0 1.2429255328790966e-07 0.0 -0.9999999999999922 1.2246467991473436e-16
773255813.9534883 -0.9999999999999921 1.2246467991473436e-16 1.2490584535492757e-07 0.0 1.2490584535492757e-07 0.0 -0.9999999999999921 1.2246467991473436e-16
773343335.8339584 -0.9999999999999921 1.2246467991473436e-16 1.2552269504726876e-07 0.0 1.2552269504726876e-07 0.0 -0.9999999999999921 1.2246467991473436e-16
773430857.7144285 -0.999999999999992 1.2246467991473433e-16 1.2614312617645605e-07 0.0 1.2614312617645605e-07 0.0 -0.999999999999992 1.2246467991473433e-16
773518379.5948987 -0.9999999999999919 1.2246467991473433e-16 1.2676716273499526e-07 0.0 1.2676716273499526e-07 0.0 -0.9999999999999919 1.2246467991473433e-16
773605901.4753687 -0.9999999999999919 1.2246467991473433e-16 1.2739482889792038e-07 0.0 1.2739482889792038e-07 0.0 -0.9999999999999919 1.2246467991473433e-16
773693423.3558389 -0.9999999999999918 1.224646799147343e-16 1.2802614902434756e-07 0.0 1.2802614902434756e-07 0.0 -0.9999999999999918 1.224646799147343e-16
773780945.236309 -0.9999999999999917 1.224646799147343e-16 1.2866114765904518e-07 0.0 1.2866114765904518e-07 0.0 -0.9999999999999917 1.224646799147343e-16
773868467.1167791 -0.9999999999999916 1.2246467991473429e-16 1.292998495340199e-07 0.0 1.292998495340199e-07 0.0 -0.9999999999999916 1.2246467991473429e-16
773955988.9972492 -0.9999999999999916 1.2246467991473429e-16 1.2994227957012122e-07 0.0 1.2994227957012122e-07 0.0 -0.9999999999999916 1.2246467991473429e-16
774043510.8777194 -0.9999999999999915 1.2246467991473429e-16 1.3058846287865138e-07 0.0 1.3058846287865138e-07 0.0 -0.9999999999999915 1.2246467991473429e-16
774131032.7581896 -0.9999999999999913 1.2246467991473426e-16 1.3123842476300053e-07 0.0 1.3123842476300053e-07 0.0 -0.9999999999999913 1.2246467991473426e-16
774218554.6386596 -0.9999999999999912 1.2246467991473424e-16 1.3189219072029324e-07 0.0 1.3189219072029324e-07 0.0 -0.9999999999999912 1.2246467991473424e-16
774306076.5191298 -0.9999999999999912 1.2246467991473424e-16 1.3254978644305276e-07 0.0 1.3254978644305276e-07 0.0 -0.9999999999999912 1.2246467991473424e-16
774393598.3995999 -0.9999999999999911 1.2246467991473424e-16 1.3321123782087406e-07 0.0 1.3321123782087406e-07 0.0 -0.9999999999999911 1.2246467991473424e-16
774481120.28007 -0.999999999999991 1.224646799147342e-16 1.3387657094212203e-07 0.0 1.3387657094212203e-07 0.0 -0.999999999999991 1.224646799147342e-16
774568642.1605401 -0.9999999999999909 1.224646799147342e-16 1.3454581209564368e-07 0.0 1.3454581209564368e-07 0.0 -0.9999999999999909 1.224646799147342e-16
774656164.0410103 -0.9999999999999908 1.2246467991473419e-16 1.3521898777249084e-07 0.0 1.3521898777249084e-07 0.0 -0.9999999999999908 1.2246467991473419e-16
774743685.9214803 -0.9999999999999908 1.2246467991473419e-16 1.3589612466766325e-07 0.0 1.3589612466766325e-07 0.0 -0.9999999999999908 1.2246467991473419e-16
774831207.8019505 -0.9999999999999907 1.2246467991473419e-16 1.365772496818755e-07 0.0 1.365772496818755e-07 0.0 -0.9999999999999907 1.2246467991473419e-16
774918729.6824206 -0.9999999999999906 1.2246467991473416e-16 1.3726238992332355e-07 0.0 1.3726238992332355e-07 0.0 -0.9999999999999906 1.2246467991473416e-16
775006251.5628908 -0.9999999999999905 1.2246467991473416e-16 1.379515727094857e-07 0.0 1.379515727094857e-07 0.0 -0.9999999999999905 1.2246467991473416e-16
775093773.4433608 -0.9999999999999903 1.2246467991473414e-16 1.3864482556892996e-07 0.0 1.3864482556892996e-07 0.0 -0.9999999999999903 1.2246467991473414e-16
775181295.323831 -0.9999999999999902 1.2246467991473411e-16 1.393421762431492e-07 0.0 1.393421762431492e-07 0.0 -0.9999999999999902 1.2246467991473411e-16
775268817.2043011 -0.9999999999999901 1.2246467991473411e-16 1.4004365268839587e-07 0.0 1.4004365268839587e-07 0.0 -0.9999999999999901 1.2246467991473411e-16
775356339.0847712 -0.9999999999999901 1.2246467991473411e-16 1.4074928307755217e-07 0.0 1.4074928307755217e-07 0.0 -0.9999999999999901 1.2246467991473411e-16
775443860.9652413 -0.99999999999999 1.224646799147341e-16 1.4145909580201635e-07 0.0 1.4145909580201635e-07 0.0 -0.99999999999999 1.224646799147341e-16
775531382.8457115 -0.9999999999999899 1.224646799147341e-16 1.42173119473592e-07 0.0 1.42173119473592e-07 0.0 -0.9999999999999899 1.224646799147341e-16
775618904.7261815 -0.9999999999999898 1.2246467991473406e-16 1.4289138292641088e-07 0.0 1.4289138292641088e-07 0.0 -0.9999999999999898 1.2246467991473406e-16
775706426.6066517 -0.9999999999999897 1.2246467991473406e-16 1.436139152188737e-07 0.0 1.436139152188737e-07 0.0 -0.9999999999999897 1.2246467991473406e-16
775793948.4871218 -0.9999999999999896 1.2246467991473404e-16 1.443407456355997e-07 0.0 1.443407456355997e-07 0.0 -0.9999999999999896 1.2246467991473404e-16
775881470.367592 -0.9999999999999895 1.2246467991473404e-16 1.4507190368940052e-07 0.0 1.4507190368940052e-07 0.0 -0.9999999999999895 1.2246467991473404e-16
775968992.248062 -0.9999999999999893 1.2246467991473401e-16 1.458074191232769e-07 0.0 1.458074191232769e-07 0.0 -0.9999999999999893 1.2246467991473401e-16
776056514.128532 -0.9999999999999892 1.2246467991473401e-16 1.4654732191243003e-07 0.0 1.4654732191243003e-07 0.0 -0.9999999999999892 1.2246467991473401e-16
776144036.0090022 -0.9999999999999891 1.22464679914734e-16 1.4729164226629524e-07 0.0 1.4729164226629524e-07 0.0 -0.9999999999999891 1.22464679914734e-16
776231557.8894722 -0.999999999999989 1.2246467991473396e-16 1.4804041063058588e-07 0.0 1.4804041063058588e-07 0.0 -0.999999999999989 1.2246467991473396e-16
776319079.7699424 -0.9999999999999889 1.2246467991473396e-16 1.4879365768937704e-07 0.0 1.4879365768937704e-07 0.0 -0.9999999999999889 1.2246467991473396e-16
776406601.6504126 -0.9999999999999888 1.2246467991473394e-16 1.4955141436718845e-07 0.0 1.4955141436718845e-07 0.0 -0.9999999999999888 1.2246467991473394e-16
776494123.5308826 -0.9999999999999887 1.2246467991473394e-16 1.5031371183109802e-07 0.0 1.5031371183109802e-07 0.0 -0.9999999999999887 1.2246467991473394e-16
776581645.4113528 -0.9999999999999886 1.2246467991473392e-16 1.5108058149287899e-07 0.0 1.5108058149287899e-07 0.0 -0.9999999999999886 1.2246467991473392e-16
776669167.2918229 -0.9999999999999885 1.2246467991473392e-16 1.518520550111491e-07 0.0 1.518520550111491e-07 0.0 -0.9999999999999885 1.2246467991473392e-16
776756689.1722931 -0.9999999999999883 1.224646799147339e-16 1.526281642935464e-07 0.0 1.526281642935464e-07 0.0 -0.9999999999999883 1.224646799147339e-16
776844211.0527631 -0.9999999999999882 1.224646799147339e-16 1.534089414989243e-07 0.0 1.534089414989243e-07 0.0 -0.9999999999999882 1.224646799147339e-16
776931732.9332333 -0.9999999999999881 1.2246467991473387e-16 1.541944190395719e-07 0.0 1.541944190395719e-07 0.0 -0.9999999999999881 1.2246467991473387e-16
777019254.8137034 -0.999999999999988 1.2246467991473384e-16 1.549846295834494e-07 0.0 1.549846295834494e-07 0.0 -0.999999999999988 1.2246467991473384e-16
777106776.6941735 -0.9999999999999878 1.2246467991473382e-16 1.55779606056449e-07 0.0 1.55779606056449e-07 0.0 -0.9999999999999878 1.2246467991473382e-16
777194298.5746436 -0.9999999999999877 1.2246467991473382e-16 1.5657938164468318e-07 0.0 1.5657938164468318e-07 0.0 -0.9999999999999877 1.2246467991473382e-16
777281820.4551138 -0.9999999999999876 1.224646799147338e-16 1.5738398979678326e-07 0.0 1.5738398979678326e-07 0.0 -0.9999999999999876 1.224646799147338e-16
777369342.3355838 -0.9999999999999875 1.224646799147338e-16 1.5819346422622888e-07 0.0 1.5819346422622888e-07 0.0 -0.9999999999999875 1.224646799147338e-16
777456864.216054 -0.9999999999999873 1.2246467991473377e-16 1.5900783891370684e-07 0.0 1.5900783891370684e-07 0.0 -0.9999999999999873 1.2246467991473377e-16
777544386.0965241 -0.9999999999999872 1.2246467991473377e-16 1.5982714810947255e-07 0.0 1.5982714810947255e-07 0.0 -0.9999999999999872 1.2246467991473377e-16
777631907.9769943 -0.9999999999999871 1.2246467991473374e-16 1.6065142633575913e-07 0.0 1.6065142633575913e-07 0.0 -0.9999999999999871 1.2246467991473374e-16
777719429.8574643 -0.9999999999999869 1.2246467991473372e-16 1.6148070838918913e-07 0.0 1.6148070838918913e-07 0.0 -0.9999999999999869 1.2246467991473372e-16
777806951.7379345 -0.9999999999999868 1.224646799147337e-16 1.6231502934322946e-07 0.0 1.6231502934322946e-07 0.0 -0.9999999999999868 1.224646799147337e-16
777894473.6184046 -0.9999999999999867 1.224646799147337e-16 1.6315442455065073e-07 0.0 1.6315442455065073e-07 0.0 -0.9999999999999867 1.224646799147337e-16
777981995.4988747 -0.9999999999999866 1.2246467991473367e-16 1.6399892964602617e-07 0.0 1.6399892964602617e-07 0.0 -0.9999999999999866 1.2246467991473367e-16
778069517.3793448 -0.9999999999999863 1.2246467991473364e-16 1.64848580548252e-07 0.0 1.64848580548252e-07 0.0 -0.9999999999999863 1.2246467991473364e-16
778157039.259815 -0.9999999999999862 1.2246467991473364e-16 1.657034134630867e-07 0.0 1.657034134630867e-07 0.0 -0.9999999999999862 1.2246467991473364e-16
778244561.140285 -0.9999999999999861 1.2246467991473362e-16 1.6656346488572004e-07 0.0 1.6656346488572004e-07 0.0 -0.9999999999999861 1.2246467991473362e-16
778332083.0207552 -0.999999999999986 1.2246467991473362e-16 1.6742877160336857e-07 0.0 1.6742877160336857e-07 0.0 -0.999999999999986 1.2246467991473362e-16
778419604.9012253 -0.9999999999999858 1.2246467991473357e-16 1.682993706978956e-07 0.0 1.682993706978956e-07 0.0 -0.9999999999999858 1.2246467991473357e-16
778507126.7816954 -0.9999999999999857 1.2246467991473357e-16 1.6917529954845476e-07 0.0 1.6917529954845476e-07 0.0 -0.9999999999999857 1.2246467991473357e-16
778594648.6621655 -0.9999999999999856 1.2246467991473355e-16 1.7005659583416722e-07 0.0 1.7005659583416722e-07 0.0 -0.9999999999999856 1.2246467991473355e-16
778682170.5426357 -0.9999999999999853 1.2246467991473352e-16 1.709432975368134e-07 0.0 1.709432975368134e-07 0.0 -0.9999999999999853 1.2246467991473352e-16
778769692.4231058 -0.9999999999999852 1.2246467991473352e-16 1.7183544294356688e-07 0.0 1.7183544294356688e-07 0.0 -0.9999999999999852 1.2246467991473352e-16
778857214.3035759 -0.999999999999985 1.224646799147335e-16 1.7273307064973553e-07 0.0 1.7273307064973553e-07 0.0 -0.999999999999985 1.224646799147335e-16
778944736.184046 -0.9999999999999849 1.2246467991473347e-16 1.7363621956156027e-07 0.0 1.7363621956156027e-07 0.0 -0.9999999999999849 1.2246467991473347e-16
779032258.0645162 -0.9999999999999848 1.2246467991473345e-16 1.745449288990055e-07 0.0 1.745449288990055e-07 0.0 -0.9999999999999848 1.2246467991473345e-16
779119779.9449862 -0.9999999999999846 1.2246467991473342e-16 1.7545923819860366e-07 0.0 1.7545923819860366e-07 0.0 -0.9999999999999846 1.2246467991473342e-16
779207301.8254564 -0.9999999999999845 1.2246467991473342e-16 1.7637918731632407e-07 0.0 1.7637918731632407e-07 0.0 -0.9999999999999845 1.2246467991473342e-16
779294823.7059265 -0.9999999999999842 1.224646799147334e-16 1.773048164304571e-07 0.0 1.773048164304571e-07 0.0 -0.9999999999999842 1.224646799147334e-16
779382345.5863966 -0.9999999999999841 1.2246467991473337e-16 1.7823616604454295e-07 0.0 1.7823616604454295e-07 0.0 -0.9999999999999841 1.2246467991473337e-16
779469867.4668667 -0.9999999999999839 1.2246467991473335e-16 1.791732769903258e-07 0.0 1.791732769903258e-07 0.0 -0.9999999999999839 1.2246467991473335e-16
779557389.3473369 -0.9999999999999838 1.2246467991473332e-16 1.8011619043072914e-07 0.0 1.8011619043072914e-07 0.0 -0.9999999999999838 1.2246467991473332e-16
779644911.227807 -0.9999999999999836 1.224646799147333e-16 1.8106494786287332e-07 0.0 1.8106494786287332e-07 0.0 -0.9999999999999836 1.224646799147333e-16
779732433.108277 -0.9999999999999835 1.224646799147333e-16 1.8201959112111135e-07 0.0 1.8201959112111135e-07 0.0 -0.9999999999999835 1.224646799147333e-16
779819954.9887471 -0.9999999999999832 1.2246467991473327e-16 1.8298016238011723e-07 0.0 1.8298016238011723e-07 0.0 -0.9999999999999832 1.2246467991473327e-16
779907476.8692173 -0.999999999999983 1.2246467991473325e-16 1.8394670415796694e-07 0.0 1.8394670415796694e-07 0.0 -0.999999999999983 1.2246467991473325e-16
779994998.7496873 -0.9999999999999829 1.2246467991473323e-16 1.8491925931929145e-07 0.0 1.8491925931929145e-07 0.0 -0.9999999999999829 1.2246467991473323e-16
780082520.6301575 -0.9999999999999827 1.224646799147332e-16 1.8589787107843964e-07 0.0 1.8589787107843964e-07 0.0 -0.9999999999999827 1.224646799147332e-16
780170042.5106276 -0.9999999999999825 1.2246467991473318e-16 1.8688258300267423e-07 0.0 1.8688258300267423e-07 0.0 -0.9999999999999825 1.2246467991473318e-16
780257564.3910977 -0.9999999999999823 1.2246467991473315e-16 1.8787343901540478e-07 0.0 1.8787343901540478e-07 0.0 -0.9999999999999823 1.2246467991473315e-16
780345086.2715678 -0.9999999999999821 1.2246467991473313e-16 1.8887048339945973e-07 0.0 1.8887048339945973e-07 0.0 -0.9999999999999821 1.2246467991473313e-16
780432608.152038 -0.9999999999999819 1.224646799147331e-16 1.898737608003695e-07 0.0 1.898737608003695e-07 0.0 -0.9999999999999819 1.224646799147331e-16
780520130.0325081 -0.9999999999999818 1.224646799147331e-16 1.9088331622971246e-07 0.0 1.9088331622971246e-07 0.0 -0.9999999999999818 1.224646799147331e-16
780607651.9129782 -0.9999999999999816 1.2246467991473305e-16 1.918991950684682e-07 0.0 1.918991950684682e-07 0.0 -0.9999999999999816 1.2246467991473305e-16
780695173.7934483 -0.9999999999999813 1.2246467991473303e-16 1.9292144307042923e-07 0.0 1.9292144307042923e-07 0.0 -0.9999999999999813 1.2246467991473303e-16
780782695.6739185 -0.9999999999999811 1.22464679914733e-16 1.939501063656251e-07 0.0 1.939501063656251e-07 0.0 -0.9999999999999811 1.22464679914733e-16
780870217.5543885 -0.999999999999981 1.22464679914733e-16 1.94985231463793e-07 0.0 1.94985231463793e-07 0.0 -0.999999999999981 1.22464679914733e-16
780957739.4348587 -0.9999999999999808 1.2246467991473298e-16 1.9602686525789318e-07 0.0 1.9602686525789318e-07 0.0 -0.9999999999999808 1.2246467991473298e-16
781045261.3153288 -0.9999999999999806 1.2246467991473293e-16 1.9707505502763185e-07 0.0 1.9707505502763185e-07 0.0 -0.9999999999999806 1.2246467991473293e-16
781132783.1957989 -0.9999999999999803 1.224646799147329e-16 1.9812984844305476e-07 0.0 1.9812984844305476e-07 0.0 -0.9999999999999803 1.224646799147329e-16
781220305.076269 -0.9999999999999801 1.2246467991473288e-16 1.9919129356815405e-07 0.0 1.9919129356815405e-07 0.0 -0.9999999999999801 1.2246467991473288e-16
781307826.9567392 -0.9999999999999799 1.2246467991473286e-16 2.0025943886451435e-07 0.0 2.0025943886451435e-07 0.0 -0.9999999999999799 1.2246467991473286e-16
781395348.8372093 -0.9999999999999797 1.2246467991473283e-16 2.0133433319501016e-07 0.0 2.0133433319501016e-07 0.0 -0.9999999999999797 1.2246467991473283e-16
781482870.7176794 -0.9999999999999795 1.224646799147328e-16 2.024160258275242e-07 0.0 2.024160258275242e-07 0.0 -0.9999999999999795 1.224646799147328e-16
781570392.5981495 -0.9999999999999792 1.2246467991473278e-16 2.0350456643872194e-07 0.0 2.0350456643872194e-07 0.0 -0.9999999999999792 1.2246467991473278e-16
781657914.4786197 -0.999999999999979 1.2246467991473276e-16 2.0460000511784146e-07 0.0 2.0460000511784146e-07 0.0 -0.999999999999979 1.2246467991473276e-16
781745436.3590897 -0.9999999999999788 1.2246467991473273e-16 2.057023923705474e-07 0.0 2.057023923705474e-07 0.0 -0.9999999999999788 1.2246467991473273e-16
781832958.2395599 -0.9999999999999786 1.224646799147327e-16 2.068117791228118e-07 0.0 2.068117791228118e-07 0.0 -0.9999999999999786 1.224646799147327e-16
781920480.12003 -0.9999999999999784 1.2246467991473266e-16 2.0792821672482936e-07 0.0 2.0792821672482936e-07 0.0 -0.9999999999999784 1.2246467991473266e-16
782008002.0005001 -0.9999999999999781 1.2246467991473263e-16 2.090517569549885e-07 0.0 2.090517569549885e-07 0.0 -0.9999999999999781 1.2246467991473263e-16
782095523.8809702 -0.9999999999999779 1.224646799147326e-16 2.1018245202387346e-07 0.0 2.1018245202387346e-07 0.0 -0.9999999999999779 1.224646799147326e-16
782183045.7614404 -0.9999999999999777 1.2246467991473258e-16 2.1132035457830828e-07 0.0 2.1132035457830828e-07 0.0 -0.9999999999999777 1.2246467991473258e-16
782270567.6419106 -0.9999999999999774 1.2246467991473254e-16 2.1246551770544465e-07 0.0 2.1246551770544465e-07 0.0 -0.9999999999999774 1.2246467991473254e-16
782358089.5223806 -0.9999999999999771 1.224646799147325e-16 2.136179949368949e-07 0.0 2.136179949368949e-07 0.0 -0.9999999999999771 1.224646799147325e-16
782445611.4028507 -0.9999999999999769 1.2246467991473249e-16 2.1477784025290357e-07 0.0 2.1477784025290357e-07 0.0 -0.9999999999999769 1.2246467991473249e-16
782533133.2833208 -0.9999999999999767 1.2246467991473246e-16 2.1594510808656075e-07 0.0 2.1594510808656075e-07 0.0 -0.9999999999999767 1.2246467991473246e-16
782620655.1637908 -0.9999999999999764 1.2246467991473244e-16 2.1711985332807124e-07 0.0 2.1711985332807124e-07 0.0 -0.9999999999999764 1.2246467991473244e-16
782708177.044261 -0.9999999999999761 1.2246467991473239e-16 2.1830213132905294e-07 0.0 2.1830213132905294e-07 0.0 -0.9999999999999761 1.2246467991473239e-16
782795698.9247311 -0.9999999999999759 1.2246467991473236e-16 2.1949199790688602e-07 0.0 2.1949199790688602e-07 0.0 -0.9999999999999759 1.2246467991473236e-16
782883220.8052012 -0.9999999999999756 1.2246467991473234e-16 2.2068950934911055e-07 0.0 2.2068950934911055e-07 0.0 -0.9999999999999756 1.2246467991473234e-16
782970742.6856713 -0.9999999999999754 1.2246467991473231e-16 2.2189472241787308e-07 0.0 2.2189472241787308e-07 0.0 -0.9999999999999754 1.2246467991473231e-16
783058264.5661415 -0.9999999999999751 1.2246467991473226e-16 2.2310769435440747e-07 0.0 2.2310769435440747e-07 0.0 -0.9999999999999751 1.2246467991473226e-16
783145786.4466116 -0.9999999999999748 1.2246467991473224e-16 2.243284828835704e-07 0.0 2.243284828835704e-07 0.0 -0.9999999999999748 1.2246467991473224e-16
783233308.3270817 -0.9999999999999746 1.2246467991473221e-16 2.2555714621842858e-07 0.0 2.2555714621842858e-07 0.0 -0.9999999999999746 1.2246467991473221e-16
783320830.2075518 -0.9999999999999742 1.2246467991473217e-16 2.2679374306489157e-07 0.0 2.2679374306489157e-07 0.0 -0.9999999999999742 1.2246467991473217e-16
783408352.088022 -0.999999999999974 1.2246467991473214e-16 2.2803833262638069e-07 0.0 2.2803833262638069e-07 0.0 -0.999999999999974 1.2246467991473214e-16
783495873.968492 -0.9999999999999737 1.224646799147321e-16 2.2929097460856868e-07 0.0 2.2929097460856868e-07 0.0 -0.9999999999999737 1.224646799147321e-16
783583395.8489622 -0.9999999999999734 1.2246467991473207e-16 2.3055172922415785e-07 0.0 2.3055172922415785e-07 0.0 -0.9999999999999734 1.2246467991473207e-16
783670917.7294323 -0.9999999999999731 1.2246467991473204e-16 2.3182065719770024e-07 0.0 2.3182065719770024e-07 0.0 -0.9999999999999731 1.2246467991473204e-16
783758439.6099024 -0.9999999999999728 1.22464679914732e-16 2.3309781977048813e-07 0.0 2.3309781977048813e-07 0.0 -0.9999999999999728 1.22464679914732e-16
783845961.4903725 -0.9999999999999725 1.2246467991473194e-16 2.3438327870548068e-07 0.0 2.3438327870548068e-07 0.0 -0.9999999999999725 1.2246467991473194e-16
783933483.3708427 -0.9999999999999722 1.2246467991473192e-16 2.3567709629229247e-07 0.0 2.3567709629229247e-07 0.0 -0.9999999999999722 1.2246467991473192e-16
784021005.2513129 -0.9999999999999719 1.2246467991473187e-16 2.3697933535222088e-07 0.0 2.3697933535222088e-07 0.0 -0.9999999999999719 1.2246467991473187e-16
784108527.1317829 -0.9999999999999716 1.2246467991473184e-16 2.382900592433492e-07 0.0 2.382900592433492e-07 0.0 -0.9999999999999716 1.2246467991473184e-16
784196049.012253 -0.9999999999999712 1.224646799147318e-16 2.3960933186568463e-07 0.0 2.3960933186568463e-07 0.0 -0.9999999999999712 1.224646799147318e-16
784283570.8927232 -0.9999999999999709 1.2246467991473175e-16 2.4093721766635346e-07 0.0 2.4093721766635346e-07 0.0 -0.9999999999999709 1.2246467991473175e-16
784371092.7731932 -0.9999999999999706 1.2246467991473172e-16 2.422737816448625e-07 0.0 2.422737816448625e-07 0.0 -0.9999999999999706 1.2246467991473172e-16
784458614.6536634 -0.9999999999999702 1.2246467991473167e-16 2.4361908935841e-07 0.0 2.4361908935841e-07 0.0 -0.9999999999999702 1.2246467991473167e-16
784546136.5341336 -0.9999999999999699 1.2246467991473165e-16 2.449732069272469e-07 0.0 2.449732069272469e-07 0.0 -0.9999999999999699 1.2246467991473165e-16
784633658.4146036 -0.9999999999999696 1.224646799147316e-16 2.4633620104010103e-07 0.0 2.4633620104010103e-07 0.0 -0.9999999999999696 1.224646799147316e-16
784721180.2950737 -0.9999999999999692 1.2246467991473155e-16 2.4770813895966843e-07 0.0 2.4770813895966843e-07 0.0 -0.9999999999999692 1.2246467991473155e-16
784808702.1755439 -0.9999999999999689 1.2246467991473152e-16 2.490890885281477e-07 0.0 2.490890885281477e-07 0.0 -0.9999999999999689 1.2246467991473152e-16
784896224.0560141 -0.9999999999999686 1.2246467991473148e-16 2.5047911817283684e-07 0.0 2.5047911817283684e-07 0.0 -0.9999999999999686 1.2246467991473148e-16
784983745.9364841 -0.9999999999999682 1.2246467991473143e-16 2.5187829691180245e-07 0.0 2.5187829691180245e-07 0.0 -0.9999999999999682 1.2246467991473143e-16
785071267.8169543 -0.9999999999999679 1.224646799147314e-16 2.5328669435959544e-07 0.0 2.5328669435959544e-07 0.0 -0.9999999999999679 1.224646799147314e-16
785158789.6974244 -0.9999999999999676 1.2246467991473135e-16 2.5470438073303457e-07 0.0 2.5470438073303457e-07 0.0 -0.9999999999999676 1.2246467991473135e-16
785246311.5778944 -0.9999999999999671 1.224646799147313e-16 2.5613142685705053e-07 0.0 2.5613142685705053e-07 0.0 -0.9999999999999671 1.224646799147313e-16
785333833.4583646 -0.9999999999999668 1.2246467991473125e-16 2.5756790417059865e-07 0.0 2.5756790417059865e-07 0.0 -0.9999999999999668 1.2246467991473125e-16
785421355.3388348 -0.9999999999999665 1.224646799147312e-16 2.590138847326241e-07 0.0 2.590138847326241e-07 0.0 -0.9999999999999665 1.224646799147312e-16
785508877.2193048 -0.999999999999966 1.2246467991473115e-16 2.6046944122809267e-07 0.0 2.6046944122809267e-07 0.0 -0.999999999999966 1.2246467991473115e-16
785596399.099775 -0.9999999999999657 1.2246467991473113e-16 2.6193464697411365e-07 0.0 2.6193464697411365e-07 0.0 -0.9999999999999657 1.2246467991473113e-16
785683920.9802451 -0.9999999999999653 1.2246467991473106e-16 2.6340957592608526e-07 0.0 2.6340957592608526e-07 0.0 -0.9999999999999653 1.2246467991473106e-16
785771442.8607152 -0.9999999999999649 1.2246467991473103e-16 2.648943026839266e-07 0.0 2.648943026839266e-07 0.0 -0.9999999999999649 1.2246467991473103e-16
785858964.7411853 -0.9999999999999645 1.2246467991473098e-16 2.66388902498404e-07 0.0 2.66388902498404e-07 0.0 -0.9999999999999645 1.2246467991473098e-16
785946486.6216555 -0.9999999999999641 1.2246467991473093e-16 2.678934512774762e-07 0.0 2.678934512774762e-07 0.0 -0.9999999999999641 1.2246467991473093e-16
786034008.5021256 -0.9999999999999637 1.2246467991473088e-16 2.6940802559273826e-07 0.0 2.6940802559273826e-07 0.0 -0.9999999999999637 1.2246467991473088e-16
786121530.3825957 -0.9999999999999633 1.224646799147308e-16 2.709327026859378e-07 0.0 2.709327026859378e-07 0.0 -0.9999999999999633 1.224646799147308e-16
786209052.2630657 -0.9999999999999628 1.2246467991473076e-16 2.7246756047554907e-07 0.0 2.7246756047554907e-07 0.0 -0.9999999999999628 1.2246467991473076e-16
786296574.1435359 -0.9999999999999625 1.2246467991473074e-16 2.740126775634288e-07 0.0 2.740126775634288e-07 0.0 -0.9999999999999625 1.2246467991473074e-16
786384096.0240059 -0.999999999999962 1.2246467991473066e-16 2.755681332415316e-07 0.0 2.755681332415316e-07 0.0 -0.999999999999962 1.2246467991473066e-16
786471617.904476 -0.9999999999999616 1.224646799147306e-16 2.7713400749871476e-07 0.0 2.7713400749871476e-07 0.0 -0.9999999999999616 1.224646799147306e-16
786559139.7849462 -0.9999999999999611 1.2246467991473056e-16 2.7871038102760707e-07 0.0 2.7871038102760707e-07 0.0 -0.9999999999999611 1.2246467991473056e-16
786646661.6654164 -0.9999999999999607 1.2246467991473051e-16 2.802973352315541e-07 0.0 2.802973352315541e-07 0.0 -0.9999999999999607 1.2246467991473051e-16
786734183.5458864 -0.9999999999999603 1.2246467991473046e-16 2.818949522316386e-07 0.0 2.818949522316386e-07 0.0 -0.9999999999999603 1.2246467991473046e-16
786821705.4263566 -0.9999999999999598 1.224646799147304e-16 2.8350331487379307e-07 0.0 2.8350331487379307e-07 0.0 -0.9999999999999598 1.224646799147304e-16
786909227.3068267 -0.9999999999999594 1.2246467991473034e-16 2.851225067359646e-07 0.0 2.851225067359646e-07 0.0 -0.9999999999999594 1.2246467991473034e-16
786996749.1872967 -0.9999999999999588 1.2246467991473027e-16 2.867526121353661e-07 0.0 2.867526121353661e-07 0.0 -0.9999999999999588 1.2246467991473027e-16
787084271.0677669 -0.9999999999999584 1.2246467991473022e-16 2.883937161358338e-07 0.0 2.883937161358338e-07 0.0 -0.9999999999999584 1.2246467991473022e-16
787171792.9482371 -0.9999999999999579 1.2246467991473017e-16 2.900459045552261e-07 0.0 2.900459045552261e-07 0.0 -0.9999999999999579 1.2246467991473017e-16
787259314.8287071 -0.9999999999999575 1.2246467991473012e-16 2.9170926397292336e-07 0.0 2.9170926397292336e-07 0.0 -0.9999999999999575 1.2246467991473012e-16
787346836.7091773 -0.9999999999999569 1.2246467991473005e-16 2.9338388173742344e-07 0.0 2.9338388173742344e-07 0.0 -0.9999999999999569 1.2246467991473005e-16
787434358.5896474 -0.9999999999999565 1.2246467991473e-16 2.950698459739924e-07 0.0 2.950698459739924e-07 0.0 -0.9999999999999565 1.2246467991473e-16
787521880.4701174 -0.9999999999999559 1.2246467991472992e-16 2.96767245592415e-07 0.0 2.96767245592415e-07 0.0 -0.9999999999999559 1.2246467991472992e-16
787609402.3505876 -0.9999999999999555 1.2246467991472987e-16 2.984761702948448e-07 0.0 2.984761702948448e-07 0.0 -0.9999999999999555 1.2246467991472987e-16
787696924.2310578 -0.9999999999999549 1.224646799147298e-16 3.0019671058371124e-07 0.0 3.0019671058371124e-07 0.0 -0.9999999999999549 1.224646799147298e-16
787784446.1115279 -0.9999999999999544 1.2246467991472972e-16 3.019289577697367e-07 0.0 3.019289577697367e-07 0.0 -0.9999999999999544 1.2246467991472972e-16
787871967.991998 -0.9999999999999538 1.2246467991472968e-16 3.0367300398003317e-07 0.0 3.0367300398003317e-07 0.0 -0.9999999999999538 1.2246467991472968e-16
787959489.8724681 -0.9999999999999534 1.224646799147296e-16 3.0542894216630124e-07 0.0 3.0542894216630124e-07 0.0 -0.9999999999999534 1.224646799147296e-16
788047011.7529383 -0.9999999999999528 1.2246467991472955e-16 3.0719686611309876e-07 0.0 3.0719686611309876e-07 0.0 -0.9999999999999528 1.2246467991472955e-16
788134533.6334083 -0.9999999999999523 1.2246467991472948e-16 3.089768704462138e-07 0.0 3.089768704462138e-07 0.0 -0.9999999999999523 1.2246467991472948e-16
788222055.5138785 -0.9999999999999517 1.224646799147294e-16 3.1076905064114424e-07 0.0 3.1076905064114424e-07 0.0 -0.9999999999999517 1.224646799147294e-16
788309577.3943486 -0.9999999999999512 1.2246467991472933e-16 3.1257350303164854e-07 0.0 3.1257350303164854e-07 0.0 -0.9999999999999512 1.2246467991472933e-16
788397099.2748187 -0.9999999999999506 1.2246467991472928e-16 3.143903248183972e-07 0.0 3.143903248183972e-07 0.0 -0.9999999999999506 1.2246467991472928e-16
788484621.1552888 -0.9999999999999499 1.2246467991472918e-16 3.162196140777407e-07 0.0 3.162196140777407e-07 0.0 -0.9999999999999499 1.2246467991472918e-16
788572143.035759 -0.9999999999999494 1.2246467991472913e-16 3.180614697705522e-07 0.0 3.180614697705522e-07 0.0 -0.9999999999999494 1.2246467991472913e-16
788659664.9162291 -0.9999999999999488 1.2246467991472906e-16 3.1991599175117596e-07 0.0 3.1991599175117596e-07 0.0 -0.9999999999999488 1.2246467991472906e-16
788747186.7966992 -0.9999999999999482 1.2246467991472896e-16 3.217832807764855e-07 0.0 3.217832807764855e-07 0.0 -0.9999999999999482 1.2246467991472896e-16
788834708.6771693 -0.9999999999999476 1.224646799147289e-16 3.236634385150309e-07 0.0 3.236634385150309e-07 0.0 -0.9999999999999476 1.224646799147289e-16
788922230.5576395 -0.9999999999999469 1.2246467991472881e-16 3.255565675563021e-07 0.0 3.255565675563021e-07 0.0 -0.9999999999999469 1.2246467991472881e-16
789009752.4381095 -0.9999999999999464 1.2246467991472876e-16 3.27462771420076e-07 0.0 3.27462771420076e-07 0.0 -0.9999999999999464 1.2246467991472876e-16
789097274.3185796 -0.9999999999999457 1.2246467991472866e-16 3.2938215456590153e-07 0.0 3.2938215456590153e-07 0.0 -0.9999999999999457 1.2246467991472866e-16
789184796.1990497 -0.999999999999945 1.224646799147286e-16 3.313148224026575e-07 0.0 3.313148224026575e-07 0.0 -0.999999999999945 1.224646799147286e-16
789272318.0795197 -0.9999999999999445 1.2246467991472852e-16 3.3326088129823165e-07 0.0 3.3326088129823165e-07 0.0 -0.9999999999999445 1.2246467991472852e-16
789359839.9599899 -0.9999999999999438 1.2246467991472844e-16 3.352204385893309e-07 0.0 3.352204385893309e-07 0.0 -0.9999999999999438 1.2246467991472844e-16
789447361.8404601 -0.9999999999999432 1.2246467991472837e-16 3.3719360259135934e-07 0.0 3.3719360259135934e-07 0.0 -0.9999999999999432 1.2246467991472837e-16
789534883.7209302 -0.9999999999999425 1.2246467991472827e-16 3.391804826084406e-07 0.0 3.391804826084406e-07 0.0 -0.9999999999999425 1.2246467991472827e-16
789622405.6014003 -0.9999999999999418 1.224646799147282e-16 3.411811889435486e-07 0.0 3.411811889435486e-07 0.0 -0.9999999999999418 1.224646799147282e-16
789709927.4818704 -0.999999999999941 1.224646799147281e-16 3.431958329087573e-07 0.0 3.431958329087573e-07 0.0 -0.999999999999941 1.224646799147281e-16
789797449.3623406 -0.9999999999999404 1.2246467991472802e-16 3.452245268355789e-07 0.0 3.452245268355789e-07 0.0 -0.9999999999999404 1.2246467991472802e-16
789884971.2428106 -0.9999999999999397 1.2246467991472795e-16 3.472673840854596e-07 0.0 3.472673840854596e-07 0.0 -0.9999999999999397 1.2246467991472795e-16
789972493.1232808 -0.9999999999999389 1.2246467991472785e-16 3.493245190603641e-07 0.0 3.493245190603641e-07 0.0 -0.9999999999999389 1.2246467991472785e-16
790060015.0037509 -0.9999999999999383 1.2246467991472775e-16 3.513960472135036e-07 0.0 3.513960472135036e-07 0.0 -0.9999999999999383 1.2246467991472775e-16
790147536.884221 -0.9999999999999375 1.2246467991472765e-16 3.534820850601645e-07 0.0 3.534820850601645e-07 0.0 -0.9999999999999375 1.2246467991472765e-16
790235058.7646911 -0.9999999999999367 1.2246467991472758e-16 3.555827501886864e-07 0.0 3.555827501886864e-07 0.0 -0.9999999999999367 1.2246467991472758e-16
790322580.6451613 -0.999999999999936 1.2246467991472748e-16 3.576981612715374e-07 0.0 3.576981612715374e-07 0.0 -0.999999999999936 1.2246467991472748e-16
790410102.5256314 -0.9999999999999353 1.2246467991472738e-16 3.598284380765412e-07 0.0 3.598284380765412e-07 0.0 -0.9999999999999353 1.2246467991472738e-16
790497624.4061015 -0.9999999999999345 1.224646799147273e-16 3.619737014782115e-07 0.0 3.619737014782115e-07 0.0 -0.9999999999999345 1.224646799147273e-16
790585146.2865716 -0.9999999999999337 1.224646799147272e-16 3.6413407346924823e-07 0.0 3.6413407346924823e-07 0.0 -0.9999999999999337 1.224646799147272e-16
790672668.1670418 -0.9999999999999328 1.2246467991472709e-16 3.663096771721227e-07 0.0 3.663096771721227e-07 0.0 -0.9999999999999328 1.2246467991472709e-16
790760190.0475118 -0.999999999999932 1.22464679914727e-16 3.685006368508347e-07 0.0 3.685006368508347e-07 0.0 -0.999999999999932 1.22464679914727e-16
790847711.927982 -0.9999999999999313 1.2246467991472691e-16 3.7070707792278427e-07 0.0 3.7070707792278427e-07 0.0 -0.9999999999999313 1.2246467991472691e-16
790935233.8084521 -0.9999999999999304 1.224646799147268e-16 3.7292912697078525e-07 0.0 3.7292912697078525e-07 0.0 -0.9999999999999304 1.224646799147268e-16
791022755.6889222 -0.9999999999999296 1.224646799147267e-16 3.7516691175521707e-07 0.0 3.7516691175521707e-07 0.0 -0.9999999999999296 1.224646799147267e-16
791110277.5693923 -0.9999999999999287 1.224646799147266e-16 3.774205612263349e-07 0.0 3.774205612263349e-07 0.0 -0.9999999999999287 1.224646799147266e-16
791197799.4498625 -0.9999999999999278 1.224646799147265e-16 3.7969020553667556e-07 0.0 3.7969020553667556e-07 0.0 -0.9999999999999278 1.224646799147265e-16
791285321.3303326 -0.9999999999999271 1.224646799147264e-16 3.8197597605366525e-07 0.0 3.8197597605366525e-07 0.0 -0.9999999999999271 1.224646799147264e-16
791372843.2108027 -0.9999999999999262 1.2246467991472627e-16 3.8427800537232965e-07 0.0 3.8427800537232965e-07 0.0 -0.9999999999999262 1.2246467991472627e-16
791460365.0912728 -0.9999999999999253 1.2246467991472617e-16 3.8659642732818555e-07 0.0 3.8659642732818555e-07 0.0 -0.9999999999999253 1.2246467991472617e-16
791547886.971743 -0.9999999999999244 1.2246467991472605e-16 3.889313770102498e-07 0.0 3.889313770102498e-07 0.0 -0.9999999999999244 1.2246467991472605e-16
791635408.852213 -0.9999999999999234 1.2246467991472593e-16 3.9128299077421727e-07 0.0 3.9128299077421727e-07 0.0 -0.9999999999999234 1.2246467991472593e-16
791722930.7326832 -0.9999999999999225 1.2246467991472583e-16 3.936514062557994e-07 0.0 3.936514062557994e-07 0.0 -0.9999999999999225 1.2246467991472583e-16
791810452.6131533 -0.9999999999999215 1.224646799147257e-16 3.960367623842053e-07 0.0 3.960367623842053e-07 0.0 -0.9999999999999215 1.224646799147257e-16
791897974.4936234 -0.9999999999999206 1.224646799147256e-16 3.984391993957762e-07 0.0 3.984391993957762e-07 0.0 -0.9999999999999206 1.224646799147256e-16
791985496.3740935 -0.9999999999999196 1.2246467991472548e-16 4.008588588478144e-07 0.0 4.008588588478144e-07 0.0 -0.9999999999999196 1.2246467991472548e-16
792073018.2545637 -0.9999999999999186 1.2246467991472536e-16 4.032958836325146e-07 0.0 4.032958836325146e-07 0.0 -0.9999999999999186 1.2246467991472536e-16
792160540.1350337 -0.9999999999999176 1.2246467991472524e-16 4.057504179911101e-07 0.0 4.057504179911101e-07 0.0 -0.9999999999999176 1.2246467991472524e-16
792248062.0155039 -0.9999999999999166 1.2246467991472511e-16 4.0822260752817943e-07 0.0 4.0822260752817943e-07 0.0 -0.9999999999999166 1.2246467991472511e-16
792335583.895974 -0.9999999999999156 1.22464679914725e-16 4.1071259922608284e-07 0.0 4.1071259922608284e-07 0.0 -0.9999999999999156 1.22464679914725e-16
792423105.7764442 -0.9999999999999146 1.2246467991472487e-16 4.132205414596107e-07 0.0 4.132205414596107e-07 0.0 -0.9999999999999146 1.2246467991472487e-16
792510627.6569142 -0.9999999999999135 1.2246467991472472e-16 4.1574658401078675e-07 0.0 4.1574658401078675e-07 0.0 -0.9999999999999135 1.2246467991472472e-16
792598149.5373844 -0.9999999999999125 1.224646799147246e-16 4.1829087808385857e-07 0.0 4.1829087808385857e-07 0.0 -0.9999999999999125 1.224646799147246e-16
792685671.4178544 -0.9999999999999114 1.2246467991472447e-16 4.208535763204195e-07 0.0 4.208535763204195e-07 0.0 -0.9999999999999114 1.2246467991472447e-16
792773193.2983245 -0.9999999999999103 1.2246467991472433e-16 4.234348328148006e-07 0.0 4.234348328148006e-07 0.0 -0.9999999999999103 1.2246467991472433e-16
792860715.1787946 -0.9999999999999092 1.224646799147242e-16 4.2603480312953766e-07 0.0 4.2603480312953766e-07 0.0 -0.9999999999999092 1.224646799147242e-16
792948237.0592648 -0.9999999999999081 1.2246467991472405e-16 4.286536443111008e-07 0.0 4.286536443111008e-07 0.0 -0.9999999999999081 1.2246467991472405e-16
793035758.9397349 -0.999999999999907 1.2246467991472393e-16 4.3129151490576884e-07 0.0 4.3129151490576884e-07 0.0 -0.999999999999907 1.2246467991472393e-16
793123280.820205 -0.9999999999999059 1.2246467991472378e-16 4.3394857497571997e-07 0.0 4.3394857497571997e-07 0.0 -0.9999999999999059 1.2246467991472378e-16
793210802.7006751 -0.9999999999999046 1.2246467991472364e-16 4.3662498611530107e-07 0.0 4.3662498611530107e-07 0.0 -0.9999999999999046 1.2246467991472364e-16
793298324.5811453 -0.9999999999999035 1.2246467991472351e-16 4.3932091146746585e-07 0.0 4.3932091146746585e-07 0.0 -0.9999999999999035 1.2246467991472351e-16
793385846.4616153 -0.9999999999999023 1.2246467991472336e-16 4.4203651574045716e-07 0.0 4.4203651574045716e-07 0.0 -0.9999999999999023 1.2246467991472336e-16
793473368.3420855 -0.9999999999999011 1.2246467991472322e-16 4.447719652246681e-07 0.0 4.447719652246681e-07 0.0 -0.9999999999999011 1.2246467991472322e-16
793560890.2225556 -0.9999999999998999 1.2246467991472307e-16 4.4752742780967733e-07 0.0 4.4752742780967733e-07 0.0 -0.9999999999998999 1.2246467991472307e-16
793648412.1030257 -0.9999999999998986 1.224646799147229e-16 4.503030730015277e-07 0.0 4.503030730015277e-07 0.0 -0.9999999999998986 1.224646799147229e-16
793735933.9834958 -0.9999999999998973 1.2246467991472275e-16 4.530990719402064e-07 0.0 4.530990719402064e-07 0.0 -0.9999999999998973 1.2246467991472275e-16
793823455.863966 -0.9999999999998961 1.224646799147226e-16 4.55915597417297e-07 0.0 4.55915597417297e-07 0.0 -0.9999999999998961 1.224646799147226e-16
793910977.7444361 -0.9999999999998948 1.2246467991472243e-16 4.587528238938944e-07 0.0 4.587528238938944e-07 0.0 -0.9999999999998948 1.2246467991472243e-16
793998499.6249062 -0.9999999999998934 1.2246467991472228e-16 4.616109275186969e-07 0.0 4.616109275186969e-07 0.0 -0.9999999999998934 1.2246467991472228e-16
794086021.5053763 -0.9999999999998921 1.224646799147221e-16 4.6449008614636003e-07 0.0 4.6449008614636003e-07 0.0 -0.9999999999998921 1.224646799147221e-16
794173543.3858465 -0.9999999999998908 1.2246467991472193e-16 4.673904793559928e-07 0.0 4.673904793559928e-07 0.0 -0.9999999999998908 1.2246467991472193e-16
794261065.2663165 -0.9999999999998894 1.2246467991472179e-16 4.703122884699708e-07 0.0 4.703122884699708e-07 0.0 -0.9999999999998894 1.2246467991472179e-16
794348587.1467867 -0.999999999999888 1.2246467991472161e-16 4.73255696572923e-07 0.0 4.73255696572923e-07 0.0 -0.999999999999888 1.2246467991472161e-16
794436109.0272568 -0.9999999999998865 1.2246467991472142e-16 4.762208885309401e-07 0.0 4.762208885309401e-07 0.0 -0.9999999999998865 1.2246467991472142e-16
794523630.9077269 -0.9999999999998852 1.2246467991472127e-16 4.792080510110522e-07 0.0 4.792080510110522e-07 0.0 -0.9999999999998852 1.2246467991472127e-16
794611152.788197 -0.9999999999998838 1.224646799147211e-16 4.822173725009135e-07 0.0 4.822173725009135e-07 0.0 -0.9999999999998838 1.224646799147211e-16
794698674.6686672 -0.9999999999998822 1.224646799147209e-16 4.85249043328753e-07 0.0 4.85249043328753e-07 0.0 -0.9999999999998822 1.224646799147209e-16
794786196.5491372 -0.9999999999998808 1.2246467991472073e-16 4.883032556835131e-07 0.0 4.883032556835131e-07 0.0 -0.9999999999998808 1.2246467991472073e-16
794873718.4296074 -0.9999999999998792 1.2246467991472053e-16 4.913802036353295e-07 0.0 4.913802036353295e-07 0.0 -0.9999999999998792 1.2246467991472053e-16
794961240.3100775 -0.9999999999998778 1.2246467991472036e-16 4.944800831561478e-07 0.0 4.944800831561478e-07 0.0 -0.9999999999998778 1.2246467991472036e-16
795048762.1905477 -0.9999999999998762 1.2246467991472016e-16 4.976030921406672e-07 0.0 4.976030921406672e-07 0.0 -0.9999999999998762 1.2246467991472016e-16
795136284.0710177 -0.9999999999998745 1.2246467991471996e-16 5.00749430427518e-07 0.0 5.00749430427518e-07 0.0 -0.9999999999998745 1.2246467991471996e-16
795223805.9514879 -0.999999999999873 1.2246467991471977e-16 5.039192998207213e-07 0.0 5.039192998207213e-07 0.0 -0.999999999999873 1.2246467991471977e-16
795311327.831958 -0.9999999999998714 1.2246467991471957e-16 5.071129041113404e-07 0.0 5.071129041113404e-07 0.0 -0.9999999999998714 1.2246467991471957e-16
795398849.7124281 -0.9999999999998698 1.2246467991471937e-16 5.103304490994819e-07 0.0 5.103304490994819e-07 0.0 -0.9999999999998698 1.2246467991471937e-16
795486371.5928982 -0.9999999999998681 1.2246467991471917e-16 5.135721426165348e-07 0.0 5.135721426165348e-07 0.0 -0.9999999999998681 1.2246467991471917e-16
795573893.4733683 -0.9999999999998664 1.2246467991471898e-16 5.168381945476442e-07 0.0 5.168381945476442e-07 0.0 -0.9999999999998664 1.2246467991471898e-16
795661415.3538384 -0.9999999999998647 1.2246467991471875e-16 5.201288168545396e-07 0.0 5.201288168545396e-07 0.0 -0.9999999999998647 1.2246467991471875e-16
795748937.2343085 -0.999999999999863 1.2246467991471853e-16 5.234442235985588e-07 0.0 5.234442235985588e-07 0.0 -0.999999999999863 1.2246467991471853e-16
795836459.1147786 -0.9999999999998612 1.2246467991471834e-16 5.267846309640383e-07 0.0 5.267846309640383e-07 0.0 -0.9999999999998612 1.2246467991471834e-16
795923980.9952488 -0.9999999999998594 1.2246467991471811e-16 5.30150257281921e-07 0.0 5.30150257281921e-07 0.0 -0.9999999999998594 1.2246467991471811e-16
796011502.8757188 -0.9999999999998577 1.224646799147179e-16 5.335413230536923e-07 0.0 5.335413230536923e-07 0.0 -0.9999999999998577 1.224646799147179e-16
796099024.756189 -0.9999999999998558 1.2246467991471767e-16 5.369580509756229e-07 0.0 5.369580509756229e-07 0.0 -0.9999999999998558 1.2246467991471767e-16
796186546.6366591 -0.999999999999854 1.2246467991471745e-16 5.404006659632877e-07 0.0 5.404006659632877e-07 0.0 -0.999999999999854 1.2246467991471745e-16
796274068.5171292 -0.9999999999998521 1.224646799147172e-16 5.438693951763743e-07 0.0 5.438693951763743e-07 0.0 -0.9999999999998521 1.224646799147172e-16
796361590.3975993 -0.9999999999998501 1.2246467991471696e-16 5.473644680438703e-07 0.0 5.473644680438703e-07 0.0 -0.9999999999998501 1.2246467991471696e-16
796449112.2780695 -0.9999999999998482 1.2246467991471673e-16 5.508861162894697e-07 0.0 5.508861162894697e-07 0.0 -0.9999999999998482 1.2246467991471673e-16
796536634.1585395 -0.9999999999998462 1.2246467991471649e-16 5.544345739573652e-07 0.0 5.544345739573652e-07 0.0 -0.9999999999998462 1.2246467991471649e-16
796624156.0390097 -0.9999999999998442 1.2246467991471624e-16 5.580100774383342e-07 0.0 5.580100774383342e-07 0.0 -0.9999999999998442 1.2246467991471624e-16
796711677.9194798 -0.9999999999998422 1.22464679914716e-16 5.616128654961557e-07 0.0 5.616128654961557e-07 0.0 -0.9999999999998422 1.22464679914716e-16
796799199.79995 -0.9999999999998402 1.2246467991471575e-16 5.652431792943539e-07 0.0 5.652431792943539e-07 0.0 -0.9999999999998402 1.2246467991471575e-16
796886721.68042 -0.9999999999998381 1.224646799147155e-16 5.689012624232755e-07 0.0 5.689012624232755e-07 0.0 -0.9999999999998381 1.224646799147155e-16
796974243.5608902 -0.999999999999836 1.2246467991471523e-16 5.725873609275322e-07 0.0 5.725873609275322e-07 0.0 -0.999999999999836 1.2246467991471523e-16
797061765.4413604 -0.9999999999998339 1.2246467991471498e-16 5.763017233337318e-07 0.0 5.763017233337318e-07 0.0 -0.9999999999998339 1.2246467991471498e-16
797149287.3218304 -0.9999999999998318 1.224646799147147e-16 5.800446006786038e-07 0.0 5.800446006786038e-07 0.0 -0.9999999999998318 1.224646799147147e-16
797236809.2023005 -0.9999999999998296 1.2246467991471444e-16 5.838162465374874e-07 0.0 5.838162465374874e-07 0.0 -0.9999999999998296 1.2246467991471444e-16
797324331.0827707 -0.9999999999998274 1.2246467991471417e-16 5.876169170531233e-07 0.0 5.876169170531233e-07 0.0 -0.9999999999998274 1.2246467991471417e-16
797411852.9632407 -0.999999999999825 1.224646799147139e-16 5.914468709648489e-07 0.0 5.914468709648489e-07 0.0 -0.999999999999825 1.224646799147139e-16
797499374.8437109 -0.9999999999998228 1.2246467991471363e-16 5.953063696381922e-07 0.0 5.953063696381922e-07 0.0 -0.9999999999998228 1.2246467991471363e-16
797586896.724181 -0.9999999999998205 1.2246467991471333e-16 5.991956770947379e-07 0.0 5.991956770947379e-07 0.0 -0.9999999999998205 1.2246467991471333e-16
797674418.6046512 -0.9999999999998181 1.2246467991471306e-16 6.031150600424892e-07 0.0 6.031150600424892e-07 0.0 -0.9999999999998181 1.2246467991471306e-16
797761940.4851213 -0.9999999999998157 1.2246467991471274e-16 6.070647879065311e-07 0.0 6.070647879065311e-07 0.0 -0.9999999999998157 1.2246467991471274e-16
797849462.3655914 -0.9999999999998133 1.2246467991471244e-16 6.110451328601309e-07 0.0 6.110451328601309e-07 0.0 -0.9999999999998133 1.2246467991471244e-16
797936984.2460616 -0.9999999999998108 1.2246467991471215e-16 6.150563698562087e-07 0.0 6.150563698562087e-07 0.0 -0.9999999999998108 1.2246467991471215e-16
798024506.1265316 -0.9999999999998084 1.2246467991471185e-16 6.190987766591846e-07 0.0 6.190987766591846e-07 0.0 -0.9999999999998084 1.2246467991471185e-16
798112028.0070018 -0.9999999999998058 1.2246467991471153e-16 6.231726338773347e-07 0.0 6.231726338773347e-07 0.0 -0.9999999999998058 1.2246467991471153e-16
798199549.8874719 -0.9999999999998033 1.2246467991471124e-16 6.27278224995405e-07 0.0 6.27278224995405e-07 0.0 -0.9999999999998033 1.2246467991471124e-16
798287071.767942 -0.9999999999998006 1.224646799147109e-16 6.314158364077654e-07 0.0 6.314158364077654e-07 0.0 -0.9999999999998006 1.224646799147109e-16
798374593.6484121 -0.9999999999997979 1.2246467991471057e-16 6.355857574519504e-07 0.0 6.355857574519504e-07 0.0 -0.9999999999997979 1.2246467991471057e-16
798462115.5288823 -0.9999999999997953 1.2246467991471025e-16 6.397882804425939e-07 0.0 6.397882804425939e-07 0.0 -0.9999999999997953 1.2246467991471025e-16
798549637.4093524 -0.9999999999997926 1.2246467991470993e-16 6.440237007058563e-07 0.0 6.440237007058563e-07 0.0 -0.9999999999997926 1.2246467991470993e-16
798637159.2898225 -0.9999999999997898 1.2246467991470958e-16 6.482923166142404e-07 0.0 6.482923166142404e-07 0.0 -0.9999999999997898 1.2246467991470958e-16
798724681.1702926 -0.9999999999997871 1.2246467991470924e-16 6.52594429621908e-07 0.0 6.52594429621908e-07 0.0 -0.9999999999997871 1.2246467991470924e-16
798812203.0507628 -0.9999999999997842 1.224646799147089e-16 6.569303443003999e-07 0.0 6.569303443003999e-07 0.0 -0.9999999999997842 1.224646799147089e-16
798899724.9312328 -0.9999999999997813 1.2246467991470852e-16 6.613003683748397e-07 0.0 6.613003683748397e-07 0.0 -0.9999999999997813 1.2246467991470852e-16
798987246.811703 -0.9999999999997784 1.2246467991470818e-16 6.657048127606184e-07 0.0 6.657048127606184e-07 0.0 -0.9999999999997784 1.2246467991470818e-16
799074768.6921731 -0.9999999999997754 1.224646799147078e-16 6.701439916005129e-07 0.0 6.701439916005129e-07 0.0 -0.9999999999997754 1.224646799147078e-16
799162290.572643 -0.9999999999997724 1.2246467991470744e-16 6.746182223023254e-07 0.0 6.746182223023254e-07 0.0 -0.9999999999997724 1.2246467991470744e-16
799249812.4531132 -0.9999999999997694 1.2246467991470707e-16 6.791278255770184e-07 0.0 6.791278255770184e-07 0.0 -0.9999999999997694 1.2246467991470707e-16
799337334.3335834 -0.9999999999997663 1.224646799147067e-16 6.836731254772458e-07 0.0 6.836731254772458e-07 0.0 -0.9999999999997663 1.224646799147067e-16
799424856.2140535 -0.9999999999997631 1.224646799147063e-16 6.882544494365232e-07 0.0 6.882544494365232e-07 0.0 -0.9999999999997631 1.224646799147063e-16
799512378.0945235 -0.99999999999976 1.2246467991470594e-16 6.928721283088031e-07 0.0 6.928721283088031e-07 0.0 -0.99999999999976 1.2246467991470594e-16
799599899.9749937 -0.9999999999997568 1.2246467991470554e-16 6.975264964086479e-07 0.0 6.975264964086479e-07 0.0 -0.9999999999997568 1.2246467991470554e-16
799687421.8554639 -0.9999999999997534 1.2246467991470512e-16 7.022178915518225e-07 0.0 7.022178915518225e-07 0.0 -0.9999999999997534 1.2246467991470512e-16
799774943.7359339 -0.9999999999997501 1.2246467991470473e-16 7.069466550965072e-07 0.0 7.069466550965072e-07 0.0 -0.9999999999997501 1.2246467991470473e-16
799862465.616404 -0.9999999999997468 1.224646799147043e-16 7.117131319850214e-07 0.0 7.117131319850214e-07 0.0 -0.9999999999997468 1.224646799147043e-16
799949987.4968742 -0.9999999999997433 1.224646799147039e-16 7.165176707860757e-07 0.0 7.165176707860757e-07 0.0 -0.9999999999997433 1.224646799147039e-16
800037509.3773443 -0.9999999999997398 1.2246467991470345e-16 7.213606237375818e-07 0.0 7.213606237375818e-07 0.0 -0.9999999999997398 1.2246467991470345e-16
800125031.2578144 -0.9999999999997362 1.2246467991470303e-16 7.262423467900572e-07 0.0 7.262423467900572e-07 0.0 -0.9999999999997362 1.2246467991470303e-16
800212553.1382846 -0.9999999999997327 1.2246467991470258e-16 7.311631996505535e-07 0.0 7.311631996505535e-07 0.0 -0.9999999999997327 1.2246467991470258e-16
800300075.0187547 -0.999999999999729 1.2246467991470214e-16 7.361235458271756e-07 0.0 7.361235458271756e-07 0.0 -0.999999999999729 1.2246467991470214e-16
800387596.8992248 -0.9999999999997253 1.224646799147017e-16 7.411237526742061e-07 0.0 7.411237526742061e-07 0.0 -0.9999999999997253 1.224646799147017e-16
800475118.7796949 -0.9999999999997216 1.2246467991470123e-16 7.461641914378401e-07 0.0 7.461641914378401e-07 0.0 -0.9999999999997216 1.2246467991470123e-16
800562640.6601651 -0.9999999999997178 1.2246467991470076e-16 7.512452373024335e-07 0.0 7.512452373024335e-07 0.0 -0.9999999999997178 1.2246467991470076e-16
800650162.5406351 -0.9999999999997139 1.224646799147003e-16 7.563672694374694e-07 0.0 7.563672694374694e-07 0.0 -0.9999999999997139 1.224646799147003e-16
800737684.4211053 -0.99999999999971 1.224646799146998e-16 7.615306710450935e-07 0.0 7.615306710450935e-07 0.0 -0.99999999999971 1.224646799146998e-16
800825206.3015754 -0.999999999999706 1.2246467991469933e-16 7.667358294082757e-07 0.0 7.667358294082757e-07 0.0 -0.999999999999706 1.2246467991469933e-16
800912728.1820455 -0.999999999999702 1.2246467991469884e-16 7.719831359396252e-07 0.0 7.719831359396252e-07 0.0 -0.999999999999702 1.2246467991469884e-16
801000250.0625156 -0.9999999999996979 1.2246467991469832e-16 7.772729862308632e-07 0.0 7.772729862308632e-07 0.0 -0.9999999999996979 1.2246467991469832e-16
801087771.9429858 -0.9999999999996937 1.224646799146978e-16 7.826057801029214e-07 0.0 7.826057801029214e-07 0.0 -0.9999999999996937 1.224646799146978e-16
801175293.8234558 -0.9999999999996895 1.2246467991469728e-16 7.879819216567277e-07 0.0 7.879819216567277e-07 0.0 -0.9999999999996895 1.2246467991469728e-16
801262815.703926 -0.9999999999996853 1.2246467991469677e-16 7.934018193247073e-07 0.0 7.934018193247073e-07 0.0 -0.9999999999996853 1.2246467991469677e-16
801350337.5843961 -0.9999999999996809 1.2246467991469625e-16 7.988658859228596e-07 0.0 7.988658859228596e-07 0.0 -0.9999999999996809 1.2246467991469625e-16
801437859.4648663 -0.9999999999996765 1.224646799146957e-16 8.043745387036748e-07 0.0 8.043745387036748e-07 0.0 -0.9999999999996765 1.224646799146957e-16
801525381.3453363 -0.9999999999996719 1.2246467991469514e-16 8.09928199409645e-07 0.0 8.09928199409645e-07 0.0 -0.9999999999996719 1.2246467991469514e-16
801612903.2258065 -0.9999999999996674 1.224646799146946e-16 8.155272943275568e-07 0.0 8.155272943275568e-07 0.0 -0.9999999999996674 1.224646799146946e-16
801700425.1062766 -0.9999999999996628 1.2246467991469403e-16 8.211722543434979e-07 0.0 8.211722543434979e-07 0.0 -0.9999999999996628 1.2246467991469403e-16
801787946.9867467 -0.9999999999996582 1.2246467991469346e-16 8.268635149985482e-07 0.0 8.268635149985482e-07 0.0 -0.9999999999996582 1.2246467991469346e-16
801875468.8672168 -0.9999999999996534 1.2246467991469287e-16 8.326015165453604e-07 0.0 8.326015165453604e-07 0.0 -0.9999999999996534 1.2246467991469287e-16
801962990.747687 -0.9999999999996485 1.2246467991469228e-16 8.38386704005308e-07 0.0 8.38386704005308e-07 0.0 -0.9999999999996485 1.2246467991469228e-16
802050512.628157 -0.9999999999996436 1.2246467991469169e-16 8.442195272265702e-07 0.0 8.442195272265702e-07 0.0 -0.9999999999996436 1.2246467991469169e-16
802138034.508627 -0.9999999999996386 1.2246467991469107e-16 8.501004409429482e-07 0.0 8.501004409429482e-07 0.0 -0.9999999999996386 1.2246467991469107e-16
802225556.3890972 -0.9999999999996336 1.2246467991469045e-16 8.560299048334378e-07 0.0 8.560299048334378e-07 0.0 -0.9999999999996336 1.2246467991469045e-16
802313078.2695674 -0.9999999999996284 1.2246467991468981e-16 8.620083835826498e-07 0.0 8.620083835826498e-07 0.0 -0.9999999999996284 1.2246467991468981e-16
802400600.1500374 -0.9999999999996232 1.2246467991468917e-16 8.680363469420338e-07 0.0 8.680363469420338e-07 0.0 -0.9999999999996232 1.2246467991468917e-16
802488122.0305076 -0.999999999999618 1.2246467991468853e-16 8.741142697919662e-07 0.0 8.741142697919662e-07 0.0 -0.999999999999618 1.2246467991468853e-16
802575643.9109777 -0.9999999999996125 1.2246467991468787e-16 8.802426322046378e-07 0.0 8.802426322046378e-07 0.0 -0.9999999999996125 1.2246467991468787e-16
802663165.7914478 -0.9999999999996071 1.224646799146872e-16 8.864219195078026e-07 0.0 8.864219195078026e-07 0.0 -0.9999999999996071 1.224646799146872e-16
802750687.6719179 -0.9999999999996015 1.2246467991468653e-16 8.926526223494542e-07 0.0 8.926526223494542e-07 0.0 -0.9999999999996015 1.2246467991468653e-16
802838209.5523881 -0.9999999999995959 1.2246467991468582e-16 8.98935236763312e-07 0.0 8.98935236763312e-07 0.0 -0.9999999999995959 1.2246467991468582e-16
802925731.4328582 -0.9999999999995902 1.2246467991468513e-16 9.052702642352276e-07 0.0 9.052702642352276e-07 0.0 -0.9999999999995902 1.2246467991468513e-16
803013253.3133283 -0.9999999999995844 1.2246467991468444e-16 9.116582117705182e-07 0.0 9.116582117705182e-07 0.0 -0.9999999999995844 1.2246467991468444e-16
803100775.1937984 -0.9999999999995786 1.224646799146837e-16 9.180995919622445e-07 0.0 9.180995919622445e-07 0.0 -0.9999999999995786 1.224646799146837e-16
803188297.0742686 -0.9999999999995726 1.2246467991468298e-16 9.245949230603137e-07 0.0 9.245949230603137e-07 0.0 -0.9999999999995726 1.2246467991468298e-16
803275818.9547386 -0.9999999999995665 1.2246467991468222e-16 9.31144729041691e-07 0.0 9.31144729041691e-07 0.0 -0.9999999999995665 1.2246467991468222e-16
803363340.8352088 -0.9999999999995602 1.2246467991468146e-16 9.37749539681473e-07 0.0 9.37749539681473e-07 0.0 -0.9999999999995602 1.2246467991468146e-16
803450862.7156789 -0.999999999999554 1.224646799146807e-16 9.444098906249427e-07 0.0 9.444098906249427e-07 0.0 -0.999999999999554 1.224646799146807e-16
803538384.596149 -0.9999999999995477 1.2246467991467993e-16 9.511263234606718e-07 0.0 9.511263234606718e-07 0.0 -0.9999999999995477 1.2246467991467993e-16
803625906.4766191 -0.9999999999995411 1.2246467991467914e-16 9.578993857946208e-07 0.0 9.578993857946208e-07 0.0 -0.9999999999995411 1.2246467991467914e-16
803713428.3570893 -0.9999999999995346 1.2246467991467833e-16 9.647296313252046e-07 0.0 9.647296313252046e-07 0.0 -0.9999999999995346 1.2246467991467833e-16
803800950.2375593 -0.9999999999995279 1.224646799146775e-16 9.716176199194704e-07 0.0 9.716176199194704e-07 0.0 -0.9999999999995279 1.224646799146775e-16
803888472.1180295 -0.9999999999995212 1.2246467991467667e-16 9.78563917690343e-07 0.0 9.78563917690343e-07 0.0 -0.9999999999995212 1.2246467991467667e-16
803975993.9984996 -0.9999999999995143 1.2246467991467584e-16 9.855690970748307e-07 0.0 9.855690970748307e-07 0.0 -0.9999999999995143 1.2246467991467584e-16
804063515.8789698 -0.9999999999995073 1.2246467991467497e-16 9.926337369134499e-07 0.0 9.926337369134499e-07 0.0 -0.9999999999995073 1.2246467991467497e-16
804151037.7594398 -0.9999999999995002 1.224646799146741e-16 9.997584225307111e-07 0.0 9.997584225307111e-07 0.0 -0.9999999999995002 1.224646799146741e-16
804238559.63991 -0.999999999999493 1.2246467991467322e-16 1.0069437458167153e-06 0.0 1.0069437458167153e-06 0.0 -0.999999999999493 1.2246467991467322e-16
804326081.5203801 -0.9999999999994856 1.2246467991467234e-16 1.0141903053098528e-06 0.0 1.0141903053098528e-06 0.0 -0.9999999999994856 1.2246467991467234e-16
804413603.4008502 -0.9999999999994782 1.2246467991467142e-16 1.021498706280757e-06 0.0 1.021498706280757e-06 0.0 -0.9999999999994782 1.2246467991467142e-16
804501125.2813203 -0.9999999999994706 1.2246467991467049e-16 1.02886956081739e-06 0.0 1.02886956081739e-06 0.0 -0.9999999999994706 1.2246467991467049e-16
804588647.1617905 -0.999999999999463 1.2246467991466955e-16 1.0363034879112658e-06 0.0 1.0363034879112658e-06 0.0 -0.999999999999463 1.2246467991466955e-16
804676169.0422605 -0.9999999999994552 1.2246467991466861e-16 1.0438011135449725e-06 0.0 1.0438011135449725e-06 0.0 -0.9999999999994552 1.2246467991466861e-16
804763690.9227307 -0.9999999999994473 1.2246467991466763e-16 1.051363070780885e-06 0.0 1.051363070780885e-06 0.0 -0.9999999999994473 1.2246467991466763e-16
804851212.8032008 -0.9999999999994392 1.2246467991466664e-16 1.0589899998511258e-06 0.0 1.0589899998511258e-06 0.0 -0.9999999999994392 1.2246467991466664e-16
804938734.683671 -0.9999999999994311 1.2246467991466565e-16 1.0666825482487832e-06 0.0 1.0666825482487832e-06 0.0 -0.9999999999994311 1.2246467991466565e-16
805026256.564141 -0.9999999999994228 1.2246467991466464e-16 1.074441370820474e-06 0.0 1.074441370820474e-06 0.0 -0.9999999999994228 1.2246467991466464e-16
805113778.4446112 -0.9999999999994144 1.224646799146636e-16 1.0822671298601832e-06 0.0 1.0822671298601832e-06 0.0 -0.9999999999994144 1.224646799146636e-16
805201300.3250813 -0.9999999999994057 1.2246467991466255e-16 1.0901604952043858e-06 0.0 1.0901604952043858e-06 0.0 -0.9999999999994057 1.2246467991466255e-16
805288822.2055514 -0.999999999999397 1.224646799146615e-16 1.0981221443285774e-06 0.0 1.0981221443285774e-06 0.0 -0.999999999999397 1.224646799146615e-16
805376344.0860215 -0.9999999999993882 1.224646799146604e-16 1.1061527624452298e-06 0.0 1.1061527624452298e-06 0.0 -0.9999999999993882 1.224646799146604e-16
805463865.9664917 -0.9999999999993792 1.224646799146593e-16 1.1142530426029763e-06 0.0 1.1142530426029763e-06 0.0 -0.9999999999993792 1.224646799146593e-16
805551387.8469617 -0.9999999999993701 1.2246467991465818e-16 1.1224236857873663e-06 0.0 1.1224236857873663e-06 0.0 -0.9999999999993701 1.2246467991465818e-16
805638909.7274319 -0.9999999999993607 1.2246467991465703e-16 1.1306654010230088e-06 0.0 1.1306654010230088e-06 0.0 -0.9999999999993607 1.2246467991465703e-16
805726431.6079019 -0.9999999999993513 1.2246467991465587e-16 1.1389789054771197e-06 0.0 1.1389789054771197e-06 0.0 -0.9999999999993513 1.2246467991465587e-16
805813953.4883721 -0.9999999999993417 1.224646799146547e-16 1.1473649245646663e-06 0.0 1.1473649245646663e-06 0.0 -0.9999999999993417 1.224646799146547e-16
805901475.3688421 -0.999999999999332 1.224646799146535e-16 1.155824192054883e-06 0.0 1.155824192054883e-06 0.0 -0.999999999999332 1.224646799146535e-16
805988997.2493123 -0.9999999999993221 1.224646799146523e-16 1.1643574501794516e-06 0.0 1.1643574501794516e-06 0.0 -0.9999999999993221 1.224646799146523e-16
806076519.1297824 -0.999999999999312 1.2246467991465106e-16 1.1729654497421372e-06 0.0 1.1729654497421372e-06 0.0 -0.999999999999312 1.2246467991465106e-16
806164041.0102525 -0.9999999999993018 1.224646799146498e-16 1.181648950229983e-06 0.0 1.181648950229983e-06 0.0 -0.9999999999993018 1.224646799146498e-16
806251562.8907226 -0.9999999999992915 1.2246467991464855e-16 1.1904087199263292e-06 0.0 1.1904087199263292e-06 0.0 -0.9999999999992915 1.2246467991464855e-16
806339084.7711928 -0.9999999999992809 1.2246467991464726e-16 1.1992455360251013e-06 0.0 1.1992455360251013e-06 0.0 -0.9999999999992809 1.2246467991464726e-16
806426606.6516628 -0.9999999999992701 1.2246467991464593e-16 1.2081601847470408e-06 0.0 1.2081601847470408e-06 0.0 -0.9999999999992701 1.2246467991464593e-16
806514128.532133 -0.9999999999992593 1.224646799146446e-16 1.2171534614575664e-06 0.0 1.2171534614575664e-06 0.0 -0.9999999999992593 1.224646799146446e-16
806601650.4126031 -0.9999999999992482 1.2246467991464325e-16 1.226226170786202e-06 0.0 1.226226170786202e-06 0.0 -0.9999999999992482 1.2246467991464325e-16
806689172.2930733 -0.9999999999992369 1.2246467991464187e-16 1.2353791267479067e-06 0.0 1.2353791267479067e-06 0.0 -0.9999999999992369 1.2246467991464187e-16
806776694.1735433 -0.9999999999992254 1.2246467991464046e-16 1.244613152866061e-06 0.0 1.244613152866061e-06 0.0 -0.9999999999992254 1.2246467991464046e-16
806864216.0540135 -0.9999999999992139 1.2246467991463906e-16 1.253929082297353e-06 0.0 1.253929082297353e-06 0.0 -0.9999999999992139 1.2246467991463906e-16
806951737.9344836 -0.999999999999202 1.224646799146376e-16 1.2633277579583458e-06 0.0 1.2633277579583458e-06 0.0 -0.999999999999202 1.224646799146376e-16
807039259.8149537 -0.99999999999919 1.2246467991463612e-16 1.272810032653967e-06 0.0 1.272810032653967e-06 0.0 -0.99999999999919 1.2246467991463612e-16
807126781.6954238 -0.9999999999991778 1.2246467991463462e-16 1.2823767692079456e-06 0.0 1.2823767692079456e-06 0.0 -0.9999999999991778 1.2246467991463462e-16
807214303.575894 -0.9999999999991653 1.2246467991463311e-16 1.2920288405950011e-06 0.0 1.2920288405950011e-06 0.0 -0.9999999999991653 1.2246467991463311e-16
807301825.456364 -0.9999999999991527 1.2246467991463156e-16 1.301767130075098e-06 0.0 1.301767130075098e-06 0.0 -0.9999999999991527 1.2246467991463156e-16
807389347.3368342 -0.9999999999991398 1.2246467991462998e-16 1.3115925313296942e-06 0.0 1.3115925313296942e-06 0.0 -0.9999999999991398 1.2246467991462998e-16
807476869.2173043 -0.9999999999991268 1.2246467991462838e-16 1.3215059485998223e-06 0.0 1.3215059485998223e-06 0.0 -0.9999999999991268 1.2246467991462838e-16
807564391.0977745 -0.9999999999991135 1.2246467991462675e-16 1.3315082968263741e-06 0.0 1.3315082968263741e-06 0.0 -0.9999999999991135 1.2246467991462675e-16
807651912.9782445 -0.9999999999991 1.224646799146251e-16 1.3416005017924076e-06 0.0 1.3416005017924076e-06 0.0 -0.9999999999991 1.224646799146251e-16
807739434.8587147 -0.9999999999990863 1.2246467991462343e-16 1.3517835002675425e-06 0.0 1.3517835002675425e-06 0.0 -0.9999999999990863 1.2246467991462343e-16
807826956.7391849 -0.9999999999990724 1.2246467991462172e-16 1.3620582401544967e-06 0.0 1.3620582401544967e-06 0.0 -0.9999999999990724 1.2246467991462172e-16
807914478.6196549 -0.9999999999990582 1.2246467991461997e-16 1.3724256806377256e-06 0.0 1.3724256806377256e-06 0.0 -0.9999999999990582 1.2246467991461997e-16
808002000.500125 -0.9999999999990438 1.2246467991461822e-16 1.382886792334472e-06 0.0 1.382886792334472e-06 0.0 -0.9999999999990438 1.2246467991461822e-16
808089522.3805952 -0.9999999999990291 1.2246467991461642e-16 1.3934425574478085e-06 0.0 1.3934425574478085e-06 0.0 -0.9999999999990291 1.2246467991461642e-16
808177044.2610652 -0.9999999999990142 1.224646799146146e-16 1.4040939699220755e-06 0.0 1.4040939699220755e-06 0.0 -0.9999999999990142 1.224646799146146e-16
808264566.1415354 -0.9999999999989991 1.2246467991461275e-16 1.414842035600784e-06 0.0 1.414842035600784e-06 0.0 -0.9999999999989991 1.2246467991461275e-16
808352088.0220056 -0.9999999999989837 1.2246467991461085e-16 1.4256877723865018e-06 0.0 1.4256877723865018e-06 0.0 -0.9999999999989837 1.2246467991461085e-16
808439609.9024756 -0.999999999998968 1.2246467991460896e-16 1.4366322104035198e-06 0.0 1.4366322104035198e-06 0.0 -0.999999999998968 1.2246467991460896e-16
808527131.7829456 -0.9999999999989521 1.2246467991460698e-16 1.4476763921627496e-06 0.0 1.4476763921627496e-06 0.0 -0.9999999999989521 1.2246467991460698e-16
808614653.6634158 -0.9999999999989359 1.22464679914605e-16 1.4588213727290958e-06 0.0 1.4588213727290958e-06 0.0 -0.9999999999989359 1.22464679914605e-16
808702175.543886 -0.9999999999989194 1.22464679914603e-16 1.470068219891439e-06 0.0 1.470068219891439e-06 0.0 -0.9999999999989194 1.22464679914603e-16
808789697.424356 -0.9999999999989027 1.2246467991460094e-16 1.4814180143350225e-06 0.0 1.4814180143350225e-06 0.0 -0.9999999999989027 1.2246467991460094e-16
808877219.3048261 -0.9999999999988857 1.2246467991459885e-16 1.4928718498166647e-06 0.0 1.4928718498166647e-06 0.0 -0.9999999999988857 1.2246467991459885e-16
808964741.1852963 -0.9999999999988683 1.2246467991459673e-16 1.5044308333423388e-06 0.0 1.5044308333423388e-06 0.0 -0.9999999999988683 1.2246467991459673e-16
809052263.0657663 -0.9999999999988507 1.2246467991459458e-16 1.5160960853476563e-06 0.0 1.5160960853476563e-06 0.0 -0.9999999999988507 1.2246467991459458e-16
809139784.9462365 -0.9999999999988328 1.224646799145924e-16 1.5278687398809941e-06 0.0 1.5278687398809941e-06 0.0 -0.9999999999988328 1.224646799145924e-16
809227306.8267066 -0.9999999999988145 1.2246467991459015e-16 1.539749944789383e-06 0.0 1.539749944789383e-06 0.0 -0.9999999999988145 1.2246467991459015e-16
809314828.7071768 -0.9999999999987961 1.2246467991458788e-16 1.5517408619072502e-06 0.0 1.5517408619072502e-06 0.0 -0.9999999999987961 1.2246467991458788e-16
809402350.5876468 -0.9999999999987772 1.2246467991458556e-16 1.5638426672479537e-06 0.0 1.5638426672479537e-06 0.0 -0.9999999999987772 1.2246467991458556e-16
809489872.468117 -0.999999999998758 1.2246467991458322e-16 1.5760565511984334e-06 0.0 1.5760565511984334e-06 0.0 -0.999999999998758 1.2246467991458322e-16
809577394.3485872 -0.9999999999987385 1.2246467991458083e-16 1.5883837187165612e-06 0.0 1.5883837187165612e-06 0.0 -0.9999999999987385 1.2246467991458083e-16
809664916.2290572 -0.9999999999987187 1.224646799145784e-16 1.600825389531656e-06 0.0 1.600825389531656e-06 0.0 -0.9999999999987187 1.224646799145784e-16
809752438.1095273 -0.9999999999986985 1.2246467991457592e-16 1.6133827983481165e-06 0.0 1.6133827983481165e-06 0.0 -0.9999999999986985 1.2246467991457592e-16
809839959.9899975 -0.999999999998678 1.224646799145734e-16 1.6260571950520104e-06 0.0 1.6260571950520104e-06 0.0 -0.999999999998678 1.224646799145734e-16
809927481.8704675 -0.9999999999986571 1.2246467991457087e-16 1.6388498449209398e-06 0.0 1.6388498449209398e-06 0.0 -0.9999999999986571 1.2246467991457087e-16
810015003.7509377 -0.9999999999986358 1.2246467991456825e-16 1.651762028837208e-06 0.0 1.651762028837208e-06 0.0 -0.9999999999986358 1.2246467991456825e-16
810102525.6314079 -0.9999999999986142 1.2246467991456562e-16 1.6647950435039694e-06 0.0 1.6647950435039694e-06 0.0 -0.9999999999986142 1.2246467991456562e-16
810190047.5118779 -0.9999999999985922 1.2246467991456293e-16 1.677950201665102e-06 0.0 1.677950201665102e-06 0.0 -0.9999999999985922 1.2246467991456293e-16
810277569.392348 -0.9999999999985698 1.2246467991456017e-16 1.6912288323282155e-06 0.0 1.6912288323282155e-06 0.0 -0.9999999999985698 1.2246467991456017e-16
810365091.2728182 -0.999999999998547 1.2246467991455738e-16 1.7046322809910636e-06 0.0 1.7046322809910636e-06 0.0 -0.999999999998547 1.2246467991455738e-16
810452613.1532884 -0.999999999998524 1.2246467991455455e-16 1.718161909871742e-06 0.0 1.718161909871742e-06 0.0 -0.999999999998524 1.2246467991455455e-16
810540135.0337584 -0.9999999999985004 1.2246467991455166e-16 1.7318190981421267e-06 0.0 1.7318190981421267e-06 0.0 -0.9999999999985004 1.2246467991455166e-16
810627656.9142286 -0.9999999999984764 1.2246467991454873e-16 1.7456052421652144e-06 0.0 1.7456052421652144e-06 0.0 -0.9999999999984764 1.2246467991454873e-16
810715178.7946987 -0.999999999998452 1.2246467991454575e-16 1.7595217557359311e-06 0.0 1.7595217557359311e-06 0.0 -0.999999999998452 1.2246467991454575e-16
810802700.6751688 -0.9999999999984271 1.224646799145427e-16 1.773570070325824e-06 0.0 1.773570070325824e-06 0.0 -0.9999999999984271 1.224646799145427e-16
810890222.5556389 -0.999999999998402 1.224646799145396e-16 1.787751635331542e-06 0.0 1.787751635331542e-06 0.0 -0.999999999998402 1.224646799145396e-16
810977744.4361091 -0.9999999999983763 1.2246467991453648e-16 1.8020679183271753e-06 0.0 1.8020679183271753e-06 0.0 -0.9999999999983763 1.2246467991453648e-16
811065266.3165791 -0.9999999999983501 1.2246467991453327e-16 1.8165204053205347e-06 0.0 1.8165204053205347e-06 0.0 -0.9999999999983501 1.2246467991453327e-16
811152788.1970493 -0.9999999999983235 1.2246467991453e-16 1.8311106010135652e-06 0.0 1.8311106010135652e-06 0.0 -0.9999999999983235 1.2246467991453e-16
811240310.0775194 -0.9999999999982964 1.224646799145267e-16 1.8458400290666145e-06 0.0 1.8458400290666145e-06 0.0 -0.9999999999982964 1.224646799145267e-16
811327831.9579896 -0.9999999999982688 1.2246467991452331e-16 1.8607102323670773e-06 0.0 1.8607102323670773e-06 0.0 -0.9999999999982688 1.2246467991452331e-16
811415353.8384596 -0.9999999999982409 1.224646799145199e-16 1.8757227733021373e-06 0.0 1.8757227733021373e-06 0.0 -0.9999999999982409 1.224646799145199e-16
811502875.7189298 -0.9999999999982122 1.2246467991451639e-16 1.890879234035983e-06 0.0 1.890879234035983e-06 0.0 -0.9999999999982122 1.2246467991451639e-16
811590397.5993999 -0.9999999999981832 1.2246467991451284e-16 1.9061812167910368e-06 0.0 1.9061812167910368e-06 0.0 -0.9999999999981832 1.2246467991451284e-16
811677919.47987 -0.9999999999981536 1.224646799145092e-16 1.9216303441341106e-06 0.0 1.9216303441341106e-06 0.0 -0.9999999999981536 1.224646799145092e-16
811765441.3603401 -0.9999999999981235 1.2246467991450552e-16 1.93722825926671e-06 0.0 1.93722825926671e-06 0.0 -0.9999999999981235 1.2246467991450552e-16
811852963.2408103 -0.9999999999980929 1.2246467991450177e-16 1.9529766263200996e-06 0.0 1.9529766263200996e-06 0.0 -0.9999999999980929 1.2246467991450177e-16
811940485.1212803 -0.9999999999980618 1.2246467991449795e-16 1.9688771306551475e-06 0.0 1.9688771306551475e-06 0.0 -0.9999999999980618 1.2246467991449795e-16
812028007.0017505 -0.99999999999803 1.2246467991449408e-16 1.9849314791667446e-06 0.0 1.9849314791667446e-06 0.0 -0.99999999999803 1.2246467991449408e-16
812115528.8822206 -0.9999999999979977 1.224646799144901e-16 2.001141400593188e-06 0.0 2.001141400593188e-06 0.0 -0.9999999999979977 1.224646799144901e-16
812203050.7626907 -0.9999999999979649 1.224646799144861e-16 2.0175086458304867e-06 0.0 2.0175086458304867e-06 0.0 -0.9999999999979649 1.224646799144861e-16
812290572.6431607 -0.9999999999979313 1.2246467991448197e-16 2.0340349882517617e-06 0.0 2.0340349882517617e-06 0.0 -0.9999999999979313 1.2246467991448197e-16
812378094.5236309 -0.9999999999978972 1.224646799144778e-16 2.0507222240316933e-06 0.0 2.0507222240316933e-06 0.0 -0.9999999999978972 1.224646799144778e-16
812465616.404101 -0.9999999999978626 1.2246467991447357e-16 2.0675721724760492e-06 0.0 2.0675721724760492e-06 0.0 -0.9999999999978626 1.2246467991447357e-16
812553138.284571 -0.9999999999978272 1.2246467991446923e-16 2.084586676356778e-06 0.0 2.084586676356778e-06 0.0 -0.9999999999978272 1.2246467991446923e-16
812640660.1650412 -0.9999999999977912 1.2246467991446482e-16 2.101767602252352e-06 0.0 2.101767602252352e-06 0.0 -0.9999999999977912 1.2246467991446482e-16
812728182.0455114 -0.9999999999977547 1.2246467991446035e-16 2.119116840893487e-06 0.0 2.119116840893487e-06 0.0 -0.9999999999977547 1.2246467991446035e-16
812815703.9259814 -0.9999999999977174 1.224646799144558e-16 2.1366363075147077e-06 0.0 2.1366363075147077e-06 0.0 -0.9999999999977174 1.224646799144558e-16
812903225.8064516 -0.9999999999976794 1.2246467991445113e-16 2.154327942211349e-06 0.0 2.154327942211349e-06 0.0 -0.9999999999976794 1.2246467991445113e-16
812990747.6869217 -0.9999999999976408 1.224646799144464e-16 2.172193710302482e-06 0.0 2.172193710302482e-06 0.0 -0.9999999999976408 1.224646799144464e-16
813078269.5673919 -0.9999999999976014 1.2246467991444157e-16 2.190235602699666e-06 0.0 2.190235602699666e-06 0.0 -0.9999999999976014 1.2246467991444157e-16
813165791.4478619 -0.9999999999975613 1.2246467991443666e-16 2.2084556362817106e-06 0.0 2.2084556362817106e-06 0.0 -0.9999999999975613 1.2246467991443666e-16
813253313.3283321 -0.9999999999975205 1.2246467991443168e-16 2.2268558542756723e-06 0.0 2.2268558542756723e-06 0.0 -0.9999999999975205 1.2246467991443168e-16
813340835.2088022 -0.999999999997479 1.2246467991442658e-16 2.2454383266436714e-06 0.0 2.2454383266436714e-06 0.0 -0.999999999997479 1.2246467991442658e-16
813428357.0892723 -0.9999999999974366 1.224646799144214e-16 2.264205150476531e-06 0.0 2.264205150476531e-06 0.0 -0.9999999999974366 1.224646799144214e-16
813515878.9697424 -0.9999999999973935 1.2246467991441613e-16 2.2831584503935305e-06 0.0 2.2831584503935305e-06 0.0 -0.9999999999973935 1.2246467991441613e-16
813603400.8502126 -0.9999999999973497 1.2246467991441075e-16 2.302300378948741e-06 0.0 2.302300378948741e-06 0.0 -0.9999999999973497 1.2246467991441075e-16
813690922.7306826 -0.9999999999973049 1.2246467991440528e-16 2.321633117044112e-06 0.0 2.321633117044112e-06 0.0 -0.9999999999973049 1.2246467991440528e-16
813778444.6111528 -0.9999999999972594 1.2246467991439969e-16 2.3411588743494018e-06 0.0 2.3411588743494018e-06 0.0 -0.9999999999972594 1.2246467991439969e-16
813865966.4916229 -0.9999999999972131 1.2246467991439402e-16 2.3608798897287367e-06 0.0 2.3608798897287367e-06 0.0 -0.9999999999972131 1.2246467991439402e-16
813953488.3720931 -0.9999999999971658 1.2246467991438822e-16 2.380798431674597e-06 0.0 2.380798431674597e-06 0.0 -0.9999999999971658 1.2246467991438822e-16
814041010.2525631 -0.9999999999971178 1.2246467991438235e-16 2.4009167987486402e-06 0.0 2.4009167987486402e-06 0.0 -0.9999999999971178 1.2246467991438235e-16
814128532.1330333 -0.9999999999970688 1.2246467991437634e-16 2.4212373200300977e-06 0.0 2.4212373200300977e-06 0.0 -0.9999999999970688 1.2246467991437634e-16
814216054.0135034 -0.9999999999970188 1.2246467991437023e-16 2.441762355571248e-06 0.0 2.441762355571248e-06 0.0 -0.9999999999970188 1.2246467991437023e-16
814303575.8939735 -0.999999999996968 1.2246467991436401e-16 2.462494296860795e-06 0.0 2.462494296860795e-06 0.0 -0.999999999996968 1.2246467991436401e-16
814391097.7744436 -0.9999999999969162 1.2246467991435768e-16 2.4834355672949498e-06 0.0 2.4834355672949498e-06 0.0 -0.9999999999969162 1.2246467991435768e-16
814478619.6549138 -0.9999999999968635 1.2246467991435122e-16 2.5045886226558683e-06 0.0 2.5045886226558683e-06 0.0 -0.9999999999968635 1.2246467991435122e-16
814566141.5353838 -0.9999999999968098 1.2246467991434464e-16 2.5259559515987435e-06 0.0 2.5259559515987435e-06 0.0 -0.9999999999968098 1.2246467991434464e-16
814653663.415854 -0.999999999996755 1.2246467991433793e-16 2.5475400761465895e-06 0.0 2.5475400761465895e-06 0.0 -0.999999999996755 1.2246467991433793e-16
814741185.2963241 -0.9999999999966992 1.2246467991433108e-16 2.569343552193498e-06 0.0 2.569343552193498e-06 0.0 -0.9999999999966992 1.2246467991433108e-16
814828707.1767943 -0.9999999999966424 1.2246467991432413e-16 2.5913689700161006e-06 0.0 2.5913689700161006e-06 0.0 -0.9999999999966424 1.2246467991432413e-16
814916229.0572643 -0.9999999999965845 1.2246467991431705e-16 2.613618954794026e-06 0.0 2.613618954794026e-06 0.0 -0.9999999999965845 1.2246467991431705e-16
815003750.9377344 -0.9999999999965254 1.224646799143098e-16 2.636096167138726e-06 0.0 2.636096167138726e-06 0.0 -0.9999999999965254 1.224646799143098e-16
815091272.8182045 -0.9999999999964654 1.2246467991430246e-16 2.6588033036314276e-06 0.0 2.6588033036314276e-06 0.0 -0.9999999999964654 1.2246467991430246e-16
815178794.6986746 -0.9999999999964041 1.2246467991429494e-16 2.681743097370051e-06 0.0 2.681743097370051e-06 0.0 -0.9999999999964041 1.2246467991429494e-16
815266316.5791447 -0.9999999999963417 1.224646799142873e-16 2.7049183185254957e-06 0.0 2.7049183185254957e-06 0.0 -0.9999999999963417 1.224646799142873e-16
815353838.4596149 -0.9999999999962781 1.224646799142795e-16 2.728331774907133e-06 0.0 2.728331774907133e-06 0.0 -0.9999999999962781 1.224646799142795e-16
815441360.3400849 -0.9999999999962133 1.2246467991427157e-16 2.7519863125381624e-06 0.0 2.7519863125381624e-06 0.0 -0.9999999999962133 1.2246467991427157e-16
815528882.2205551 -0.9999999999961472 1.2246467991426348e-16 2.775884816240619e-06 0.0 2.775884816240619e-06 0.0 -0.9999999999961472 1.2246467991426348e-16
815616404.1010252 -0.9999999999960799 1.2246467991425525e-16 2.8000302102302625e-06 0.0 2.8000302102302625e-06 0.0 -0.9999999999960799 1.2246467991425525e-16
815703925.9814954 -0.9999999999960113 1.2246467991424684e-16 2.824425458721646e-06 0.0 2.824425458721646e-06 0.0 -0.9999999999960113 1.2246467991424684e-16
815791447.8619654 -0.9999999999959414 1.224646799142383e-16 2.849073566543646e-06 0.0 2.849073566543646e-06 0.0 -0.9999999999959414 1.224646799142383e-16
815878969.7424356 -0.9999999999958701 1.2246467991422956e-16 2.8739775797654552e-06 0.0 2.8739775797654552e-06 0.0 -0.9999999999958701 1.2246467991422956e-16
815966491.6229057 -0.9999999999957975 1.2246467991422066e-16 2.8991405863331478e-06 0.0 2.8991405863331478e-06 0.0 -0.9999999999957975 1.2246467991422066e-16
816054013.5033758 -0.9999999999957234 1.224646799142116e-16 2.9245657167172667e-06 0.0 2.9245657167172667e-06 0.0 -0.9999999999957234 1.224646799142116e-16
816141535.3838459 -0.9999999999956479 1.2246467991420235e-16 2.9502561445718913e-06 0.0 2.9502561445718913e-06 0.0 -0.9999999999956479 1.2246467991420235e-16
816229057.2643161 -0.9999999999955711 1.2246467991419293e-16 2.976215087404334e-06 0.0 2.976215087404334e-06 0.0 -0.9999999999955711 1.2246467991419293e-16
816316579.1447861 -0.9999999999954926 1.2246467991418332e-16 3.0024458072570615e-06 0.0 3.0024458072570615e-06 0.0 -0.9999999999954926 1.2246467991418332e-16
816404101.0252563 -0.9999999999954127 1.2246467991417353e-16 3.028951611401125e-06 0.0 3.028951611401125e-06 0.0 -0.9999999999954127 1.2246467991417353e-16
816491622.9057264 -0.9999999999953312 1.2246467991416354e-16 3.055735853041506e-06 0.0 3.055735853041506e-06 0.0 -0.9999999999953312 1.2246467991416354e-16
816579144.7861966 -0.9999999999952481 1.224646799141534e-16 3.0828019320348463e-06 0.0 3.0828019320348463e-06 0.0 -0.9999999999952481 1.224646799141534e-16
816666666.6666666 -0.9999999999951634 1.22464679914143e-16 3.1101532956196025e-06 0.0 3.1101532956196025e-06 0.0 -0.9999999999951634 1.22464679914143e-16
816754188.5471368 -0.999999999995077 1.2246467991413243e-16 3.137793439159068e-06 0.0 3.137793439159068e-06 0.0 -0.999999999995077 1.2246467991413243e-16
816841710.4276069 -0.999999999994989 1.2246467991412166e-16 3.1657259068969454e-06 0.0 3.1657259068969454e-06 0.0 -0.999999999994989 1.2246467991412166e-16
816929232.308077 -0.9999999999948993 1.2246467991411067e-16 3.1939542927263897e-06 0.0 3.1939542927263897e-06 0.0 -0.9999999999948993 1.2246467991411067e-16
817016754.1885471 -0.9999999999948078 1.2246467991409947e-16 3.222482240972688e-06 0.0 3.222482240972688e-06 0.0 -0.9999999999948078 1.2246467991409947e-16
817104276.0690173 -0.9999999999947145 1.2246467991408804e-16 3.251313447189252e-06 0.0 3.251313447189252e-06 0.0 -0.9999999999947145 1.2246467991408804e-16
817191797.9494873 -0.9999999999946193 1.2246467991407638e-16 3.2804516589677016e-06 0.0 3.2804516589677016e-06 0.0 -0.9999999999946193 1.2246467991407638e-16
817279319.8299575 -0.9999999999945223 1.224646799140645e-16 3.3099006767626627e-06 0.0 3.3099006767626627e-06 0.0 -0.9999999999945223 1.224646799140645e-16
817366841.7104276 -0.9999999999944232 1.2246467991405236e-16 3.339664354730197e-06 0.0 3.339664354730197e-06 0.0 -0.9999999999944232 1.2246467991405236e-16
817454363.5908977 -0.9999999999943224 1.2246467991404001e-16 3.369746601581778e-06 0.0 3.369746601581778e-06 0.0 -0.9999999999943224 1.2246467991404001e-16
817541885.4713678 -0.9999999999942195 1.2246467991402742e-16 3.400151381453227e-06 0.0 3.400151381453227e-06 0.0 -0.9999999999942195 1.2246467991402742e-16
817629407.351838 -0.9999999999941145 1.2246467991401455e-16 3.430882714788723e-06 0.0 3.430882714788723e-06 0.0 -0.9999999999941145 1.2246467991401455e-16
817716929.2323081 -0.9999999999940075 1.2246467991400146e-16 3.4619446792407926e-06 0.0 3.4619446792407926e-06 0.0 -0.9999999999940075 1.2246467991400146e-16
817804451.1127782 -0.9999999999938982 1.2246467991398807e-16 3.4933414105861287e-06 0.0 3.4933414105861287e-06 0.0 -0.9999999999938982 1.2246467991398807e-16
817891972.9932483 -0.9999999999937869 1.2246467991397444e-16 3.525077103657988e-06 0.0 3.525077103657988e-06 0.0 -0.9999999999937869 1.2246467991397444e-16
817979494.8737185 -0.9999999999936733 1.224646799139605e-16 3.5571560132948615e-06 0.0 3.5571560132948615e-06 0.0 -0.9999999999936733 1.224646799139605e-16
818067016.7541885 -0.9999999999935574 1.2246467991394634e-16 3.5895824553061307e-06 0.0 3.5895824553061307e-06 0.0 -0.9999999999935574 1.2246467991394634e-16
818154538.6346587 -0.9999999999934392 1.2246467991393187e-16 3.6223608074555526e-06 0.0 3.6223608074555526e-06 0.0 -0.9999999999934392 1.2246467991393187e-16
818242060.5151289 -0.9999999999933187 1.224646799139171e-16 3.6554955104614796e-06 0.0 3.6554955104614796e-06 0.0 -0.9999999999933187 1.224646799139171e-16
818329582.3955989 -0.9999999999931957 1.2246467991390204e-16 3.688991069015724e-06 0.0 3.688991069015724e-06 0.0 -0.9999999999931957 1.2246467991390204e-16
818417104.276069 -0.9999999999930702 1.2246467991388665e-16 3.7228520528208237e-06 0.0 3.7228520528208237e-06 0.0 -0.9999999999930702 1.2246467991388665e-16
818504626.1565392 -0.9999999999929421 1.2246467991387098e-16 3.757083097645266e-06 0.0 3.757083097645266e-06 0.0 -0.9999999999929421 1.2246467991387098e-16
818592148.0370094 -0.9999999999928115 1.2246467991385498e-16 3.7916889063986e-06 0.0 3.7916889063986e-06 0.0 -0.9999999999928115 1.2246467991385498e-16
818679669.9174793 -0.9999999999926783 1.2246467991383868e-16 3.826674250225315e-06 0.0 3.826674250225315e-06 0.0 -0.9999999999926783 1.2246467991383868e-16
818767191.7979494 -0.9999999999925423 1.2246467991382202e-16 3.862043969619556e-06 0.0 3.862043969619556e-06 0.0 -0.9999999999925423 1.2246467991382202e-16
818854713.6784196 -0.9999999999924035 1.2246467991380503e-16 3.897802975558505e-06 0.0 3.897802975558505e-06 0.0 -0.9999999999924035 1.2246467991380503e-16
818942235.5588896 -0.999999999992262 1.2246467991378768e-16 3.933956250657888e-06 0.0 3.933956250657888e-06 0.0 -0.999999999992262 1.2246467991378768e-16
819029757.4393598 -0.9999999999921175 1.2246467991377e-16 3.970508850347814e-06 0.0 3.970508850347814e-06 0.0 -0.9999999999921175 1.2246467991377e-16
819117279.31983 -0.9999999999919701 1.2246467991375193e-16 4.0074659040700566e-06 0.0 4.0074659040700566e-06 0.0 -0.9999999999919701 1.2246467991375193e-16
819204801.2003 -0.9999999999918197 1.2246467991373352e-16 4.0448326164974425e-06 0.0 4.0448326164974425e-06 0.0 -0.9999999999918197 1.2246467991373352e-16
819292323.0807701 -0.9999999999916661 1.224646799137147e-16 4.08261426877577e-06 0.0 4.08261426877577e-06 0.0 -0.9999999999916661 1.224646799137147e-16
819379844.9612403 -0.9999999999915095 1.2246467991369553e-16 4.120816219787778e-06 0.0 4.120816219787778e-06 0.0 -0.9999999999915095 1.2246467991369553e-16
819467366.8417104 -0.9999999999913495 1.2246467991367593e-16 4.159443907441332e-06 0.0 4.159443907441332e-06 0.0 -0.9999999999913495 1.2246467991367593e-16
819554888.7221805 -0.9999999999911863 1.2246467991365596e-16 4.198502849980457e-06 0.0 4.198502849980457e-06 0.0 -0.9999999999911863 1.2246467991365596e-16
819642410.6026506 -0.9999999999910196 1.2246467991363555e-16 4.2379986473214894e-06 0.0 4.2379986473214894e-06 0.0 -0.9999999999910196 1.2246467991363555e-16
819729932.4831208 -0.9999999999908497 1.2246467991361472e-16 4.277936982412976e-06 0.0 4.277936982412976e-06 0.0 -0.9999999999908497 1.2246467991361472e-16
819817454.3635908 -0.999999999990676 1.2246467991359347e-16 4.318323622621336e-06 0.0 4.318323622621336e-06 0.0 -0.999999999990676 1.2246467991359347e-16
819904976.244061 -0.9999999999904988 1.2246467991357175e-16 4.35916442114238e-06 0.0 4.35916442114238e-06 0.0 -0.9999999999904988 1.2246467991357175e-16
819992498.1245311 -0.999999999990318 1.2246467991354961e-16 4.400465318438444e-06 0.0 4.400465318438444e-06 0.0 -0.999999999990318 1.2246467991354961e-16
820080020.0050012 -0.9999999999901332 1.2246467991352698e-16 4.442232343703005e-06 0.0 4.442232343703005e-06 0.0 -0.9999999999901332 1.2246467991352698e-16
820167541.8854713 -0.9999999999899447 1.224646799135039e-16 4.484471616352229e-06 0.0 4.484471616352229e-06 0.0 -0.9999999999899447 1.224646799135039e-16
820255063.7659415 -0.9999999999897522 1.2246467991348032e-16 4.52718934754427e-06 0.0 4.52718934754427e-06 0.0 -0.9999999999897522 1.2246467991348032e-16
820342585.6464117 -0.9999999999895557 1.2246467991345626e-16 4.5703918417276486e-06 0.0 4.5703918417276486e-06 0.0 -0.9999999999895557 1.2246467991345626e-16
820430107.5268817 -0.9999999999893551 1.224646799134317e-16 4.6140854982178706e-06 0.0 4.6140854982178706e-06 0.0 -0.9999999999893551 1.224646799134317e-16
820517629.4073519 -0.9999999999891502 1.224646799134066e-16 4.658276812804577e-06 0.0 4.658276812804577e-06 0.0 -0.9999999999891502 1.224646799134066e-16
820605151.287822 -0.999999999988941 1.2246467991338097e-16 4.7029723793881516e-06 0.0 4.7029723793881516e-06 0.0 -0.999999999988941 1.2246467991338097e-16
820692673.168292 -0.9999999999887274 1.2246467991335481e-16 4.748178891647745e-06 0.0 4.748178891647745e-06 0.0 -0.9999999999887274 1.2246467991335481e-16
820780195.0487622 -0.9999999999885092 1.224646799133281e-16 4.793903144740637e-06 0.0 4.793903144740637e-06 0.0 -0.9999999999885092 1.224646799133281e-16
820867716.9292324 -0.9999999999882865 1.2246467991330083e-16 4.840152037033904e-06 0.0 4.840152037033904e-06 0.0 -0.9999999999882865 1.2246467991330083e-16
820955238.8097024 -0.9999999999880589 1.2246467991327295e-16 4.886932571868863e-06 0.0 4.886932571868863e-06 0.0 -0.9999999999880589 1.2246467991327295e-16
821042760.6901726 -0.9999999999878265 1.224646799132445e-16 4.934251859359276e-06 0.0 4.934251859359276e-06 0.0 -0.9999999999878265 1.224646799132445e-16
821130282.5706427 -0.9999999999875893 1.2246467991321543e-16 4.982117118223256e-06 0.0 4.982117118223256e-06 0.0 -0.9999999999875893 1.2246467991321543e-16
821217804.4511129 -0.9999999999873468 1.2246467991318575e-16 5.030535677650943e-06 0.0 5.030535677650943e-06 0.0 -0.9999999999873468 1.2246467991318575e-16
821305326.3315829 -0.9999999999870992 1.2246467991315543e-16 5.079514979207144e-06 0.0 5.079514979207144e-06 0.0 -0.9999999999870992 1.2246467991315543e-16
821392848.2120531 -0.9999999999868463 1.2246467991312447e-16 5.129062578771375e-06 0.0 5.129062578771375e-06 0.0 -0.9999999999868463 1.2246467991312447e-16
821480370.0925231 -0.999999999986588 1.2246467991309281e-16 5.179186148513955e-06 0.0 5.179186148513955e-06 0.0 -0.999999999986588 1.2246467991309281e-16
821567891.9729931 -0.999999999986324 1.224646799130605e-16 5.229893478911071e-06 0.0 5.229893478911071e-06 0.0 -0.999999999986324 1.224646799130605e-16
821655413.8534633 -0.9999999999860545 1.2246467991302749e-16 5.281192480798349e-06 0.0 5.281192480798349e-06 0.0 -0.9999999999860545 1.2246467991302749e-16
821742935.7339334 -0.999999999985779 1.2246467991299376e-16 5.3330911874639e-06 0.0 5.3330911874639e-06 0.0 -0.999999999985779 1.2246467991299376e-16
821830457.6144035 -0.9999999999854976 1.224646799129593e-16 5.3855977567821e-06 0.0 5.3855977567821e-06 0.0 -0.9999999999854976 1.224646799129593e-16
821917979.4948736 -0.9999999999852102 1.224646799129241e-16 5.438720473389107e-06 0.0 5.438720473389107e-06 0.0 -0.9999999999852102 1.224646799129241e-16
822005501.3753438 -0.9999999999849164 1.224646799128881e-16 5.492467750899474e-06 0.0 5.492467750899474e-06 0.0 -0.9999999999849164 1.224646799128881e-16
822093023.255814 -0.9999999999846162 1.2246467991285135e-16 5.5468481341672605e-06 0.0 5.5468481341672605e-06 0.0 -0.9999999999846162 1.2246467991285135e-16
822180545.136284 -0.9999999999843096 1.224646799128138e-16 5.601870301590316e-06 0.0 5.601870301590316e-06 0.0 -0.9999999999843096 1.224646799128138e-16
822268067.0167542 -0.999999999983996 1.224646799127754e-16 5.6575430674601355e-06 0.0 5.6575430674601355e-06 0.0 -0.999999999983996 1.224646799127754e-16
822355588.8972243 -0.9999999999836758 1.224646799127362e-16 5.713875384357134e-06 0.0 5.713875384357134e-06 0.0 -0.9999999999836758 1.224646799127362e-16
822443110.7776943 -0.9999999999833484 1.224646799126961e-16 5.7708763455934314e-06 0.0 5.7708763455934314e-06 0.0 -0.9999999999833484 1.224646799126961e-16
822530632.6581645 -0.9999999999830139 1.2246467991265512e-16 5.82855518770368e-06 0.0 5.82855518770368e-06 0.0 -0.9999999999830139 1.2246467991265512e-16
822618154.5386347 -0.9999999999826721 1.2246467991261326e-16 5.886921292984241e-06 0.0 5.886921292984241e-06 0.0 -0.9999999999826721 1.2246467991261326e-16
822705676.4191047 -0.9999999999823226 1.2246467991257046e-16 5.9459841920831115e-06 0.0 5.9459841920831115e-06 0.0 -0.9999999999823226 1.2246467991257046e-16
822793198.2995749 -0.9999999999819654 1.2246467991252673e-16 6.005753566641355e-06 0.0 6.005753566641355e-06 0.0 -0.9999999999819654 1.2246467991252673e-16
822880720.180045 -0.9999999999816004 1.2246467991248201e-16 6.0662392519855286e-06 0.0 6.0662392519855286e-06 0.0 -0.9999999999816004 1.2246467991248201e-16
822968242.0605152 -0.9999999999812271 1.224646799124363e-16 6.127451239875171e-06 0.0 6.127451239875171e-06 0.0 -0.9999999999812271 1.224646799124363e-16
823055763.9409852 -0.9999999999808457 1.224646799123896e-16 6.189399681303467e-06 0.0 6.189399681303467e-06 0.0 -0.9999999999808457 1.224646799123896e-16
823143285.8214554 -0.9999999999804556 1.2246467991234182e-16 6.2520948893552586e-06 0.0 6.2520948893552586e-06 0.0 -0.9999999999804556 1.2246467991234182e-16
823230807.7019255 -0.999999999980057 1.22464679912293e-16 6.315547342120311e-06 0.0 6.315547342120311e-06 0.0 -0.999999999980057 1.22464679912293e-16
823318329.5823956 -0.9999999999796493 1.2246467991224309e-16 6.3797676856666055e-06 0.0 6.3797676856666055e-06 0.0 -0.9999999999796493 1.2246467991224309e-16
823405851.4628657 -0.9999999999792325 1.2246467991219203e-16 6.444766737072187e-06 0.0 6.444766737072187e-06 0.0 -0.9999999999792325 1.2246467991219203e-16
823493373.3433359 -0.9999999999788063 1.2246467991213985e-16 6.510555487517898e-06 0.0 6.510555487517898e-06 0.0 -0.9999999999788063 1.2246467991213985e-16
823580895.2238059 -0.9999999999783705 1.2246467991208647e-16 6.577145105443124e-06 0.0 6.577145105443124e-06 0.0 -0.9999999999783705 1.2246467991208647e-16
823668417.1042761 -0.999999999977925 1.2246467991203192e-16 6.644546939764602e-06 0.0 6.644546939764602e-06 0.0 -0.999999999977925 1.2246467991203192e-16
823755938.9847462 -0.9999999999774694 1.224646799119761e-16 6.7127725231599095e-06 0.0 6.7127725231599095e-06 0.0 -0.9999999999774694 1.224646799119761e-16
823843460.8652164 -0.9999999999770033 1.2246467991191904e-16 6.7818335754185515e-06 0.0 6.7818335754185515e-06 0.0 -0.9999999999770033 1.2246467991191904e-16
823930982.7456864 -0.9999999999765268 1.2246467991186069e-16 6.851742006860067e-06 0.0 6.851742006860067e-06 0.0 -0.9999999999765268 1.2246467991186069e-16
824018504.6261566 -0.9999999999760394 1.2246467991180098e-16 6.9225099218221786e-06 0.0 6.9225099218221786e-06 0.0 -0.9999999999760394 1.2246467991180098e-16
824106026.5066267 -0.9999999999755409 1.2246467991173994e-16 6.994149622219436e-06 0.0 6.994149622219436e-06 0.0 -0.9999999999755409 1.2246467991173994e-16
824193548.3870968 -0.9999999999750311 1.224646799116775e-16 7.06667361117511e-06 0.0 7.06667361117511e-06 0.0 -0.9999999999750311 1.224646799116775e-16
824281070.2675669 -0.9999999999745095 1.2246467991161363e-16 7.140094596727615e-06 0.0 7.140094596727615e-06 0.0 -0.9999999999745095 1.2246467991161363e-16
824368592.1480371 -0.999999999973976 1.224646799115483e-16 7.214425495611254e-06 0.0 7.214425495611254e-06 0.0 -0.999999999973976 1.224646799115483e-16
824456114.0285071 -0.9999999999734303 1.2246467991148147e-16 7.289679437117105e-06 0.0 7.289679437117105e-06 0.0 -0.9999999999734303 1.2246467991148147e-16
824543635.9089773 -0.9999999999728719 1.2246467991141308e-16 7.365869767031237e-06 0.0 7.365869767031237e-06 0.0 -0.9999999999728719 1.2246467991141308e-16
824631157.7894474 -0.9999999999723008 1.2246467991134314e-16 7.4430100516554e-06 0.0 7.4430100516554e-06 0.0 -0.9999999999723008 1.2246467991134314e-16
824718679.6699175 -0.9999999999717164 1.2246467991127158e-16 7.521114081909986e-06 0.0 7.521114081909986e-06 0.0 -0.9999999999717164 1.2246467991127158e-16
824806201.5503876 -0.9999999999711184 1.2246467991119834e-16 7.600195877523156e-06 0.0 7.600195877523156e-06 0.0 -0.9999999999711184 1.2246467991119834e-16
824893723.4308578 -0.9999999999705067 1.2246467991112342e-16 7.680269691305439e-06 0.0 7.680269691305439e-06 0.0 -0.9999999999705067 1.2246467991112342e-16
824981245.3113279 -0.9999999999698806 1.2246467991104676e-16 7.76135001351407e-06 0.0 7.76135001351407e-06 0.0 -0.9999999999698806 1.2246467991104676e-16
825068767.191798 -0.9999999999692402 1.2246467991096834e-16 7.843451576308171e-06 0.0 7.843451576308171e-06 0.0 -0.9999999999692402 1.2246467991096834e-16
825156289.0722681 -0.9999999999685846 1.2246467991088805e-16 7.926589358297701e-06 0.0 7.926589358297701e-06 0.0 -0.9999999999685846 1.2246467991088805e-16
825243810.9527383 -0.9999999999679137 1.2246467991080588e-16 8.010778589185292e-06 0.0 8.010778589185292e-06 0.0 -0.9999999999679137 1.2246467991080588e-16
825331332.8332082 -0.9999999999672271 1.224646799107218e-16 8.096034754508457e-06 0.0 8.096034754508457e-06 0.0 -0.9999999999672271 1.224646799107218e-16
825418854.7136784 -0.9999999999665243 1.2246467991063573e-16 8.182373600479489e-06 0.0 8.182373600479489e-06 0.0 -0.9999999999665243 1.2246467991063573e-16
825506376.5941485 -0.9999999999658051 1.2246467991054765e-16 8.269811138927681e-06 0.0 8.269811138927681e-06 0.0 -0.9999999999658051 1.2246467991054765e-16
825593898.4746187 -0.9999999999650688 1.2246467991045748e-16 8.358363652345741e-06 0.0 8.358363652345741e-06 0.0 -0.9999999999650688 1.2246467991045748e-16
825681420.3550887 -0.9999999999643152 1.224646799103652e-16 8.448047699043708e-06 0.0 8.448047699043708e-06 0.0 -0.9999999999643152 1.224646799103652e-16
825768942.2355589 -0.9999999999635437 1.2246467991027071e-16 8.538880118411585e-06 0.0 8.538880118411585e-06 0.0 -0.9999999999635437 1.2246467991027071e-16
825856464.116029 -0.9999999999627539 1.2246467991017398e-16 8.630878036293126e-06 0.0 8.630878036293126e-06 0.0 -0.9999999999627539 1.2246467991017398e-16
825943985.9964991 -0.9999999999619453 1.2246467991007498e-16 8.724058870474862e-06 0.0 8.724058870474862e-06 0.0 -0.9999999999619453 1.2246467991007498e-16
826031507.8769692 -0.9999999999611175 1.2246467990997358e-16 8.818440336292522e-06 0.0 8.818440336292522e-06 0.0 -0.9999999999611175 1.2246467990997358e-16
826119029.7574394 -0.9999999999602699 1.2246467990986977e-16 8.914040452355725e-06 0.0 8.914040452355725e-06 0.0 -0.9999999999602699 1.2246467990986977e-16
826206551.6379094 -0.999999999959402 1.224646799097635e-16 9.010877546396791e-06 0.0 9.010877546396791e-06 0.0 -0.999999999959402 1.224646799097635e-16
826294073.5183796 -0.9999999999585133 1.2246467990965466e-16 9.108970261245117e-06 0.0 9.108970261245117e-06 0.0 -0.9999999999585133 1.2246467990965466e-16
826381595.3988497 -0.9999999999576032 1.224646799095432e-16 9.208337560928581e-06 0.0 9.208337560928581e-06 0.0 -0.9999999999576032 1.224646799095432e-16
826469117.2793198 -0.9999999999566712 1.2246467990942907e-16 9.30899873690779e-06 0.0 9.30899873690779e-06 0.0 -0.9999999999566712 1.2246467990942907e-16
826556639.1597899 -0.9999999999557168 1.224646799093122e-16 9.410973414445946e-06 0.0 9.410973414445946e-06 0.0 -0.9999999999557168 1.224646799093122e-16
826644161.0402601 -0.9999999999547392 1.2246467990919246e-16 9.5142815591133e-06 0.0 9.5142815591133e-06 0.0 -0.9999999999547392 1.2246467990919246e-16
826731682.9207302 -0.9999999999537379 1.2246467990906984e-16 9.618943483436794e-06 0.0 9.618943483436794e-06 0.0 -0.9999999999537379 1.2246467990906984e-16
826819204.8012003 -0.9999999999527124 1.2246467990894427e-16 9.724979853691163e-06 0.0 9.724979853691163e-06 0.0 -0.9999999999527124 1.2246467990894427e-16
826906726.6816704 -0.9999999999516618 1.2246467990881559e-16 9.832411696840322e-06 0.0 9.832411696840322e-06 0.0 -0.9999999999516618 1.2246467990881559e-16
826994248.5621406 -0.9999999999505856 1.224646799086838e-16 9.941260407628671e-06 0.0 9.941260407628671e-06 0.0 -0.9999999999505856 1.224646799086838e-16
827081770.4426106 -0.9999999999494832 1.224646799085488e-16 1.0051547755828153e-05 0.0 1.0051547755828153e-05 0.0 -0.9999999999494832 1.224646799085488e-16
827169292.3230808 -0.9999999999483536 1.2246467990841046e-16 1.0163295893645732e-05 0.0 1.0163295893645732e-05 0.0 -0.9999999999483536 1.2246467990841046e-16
827256814.2035509 -0.9999999999471965 1.2246467990826876e-16 1.0276527363291155e-05 0.0 1.0276527363291155e-05 0.0 -0.9999999999471965 1.2246467990826876e-16
827344336.084021 -0.9999999999460107 1.2246467990812353e-16 1.039126510471311e-05 0.0 1.039126510471311e-05 0.0 -0.9999999999460107 1.2246467990812353e-16
827431857.9644911 -0.9999999999447958 1.2246467990797476e-16 1.0507532463507121e-05 0.0 1.0507532463507121e-05 0.0 -0.9999999999447958 1.2246467990797476e-16
827519379.8449613 -0.9999999999435509 1.224646799078223e-16 1.06253531989956e-05 0.0 1.06253531989956e-05 0.0 -0.9999999999435509 1.224646799078223e-16
827606901.7254314 -0.9999999999422752 1.2246467990766607e-16 1.0744751492490192e-05 0.0 1.0744751492490192e-05 0.0 -0.9999999999422752 1.2246467990766607e-16
827694423.6059015 -0.9999999999409677 1.2246467990750595e-16 1.0865751955735604e-05 0.0 1.0865751955735604e-05 0.0 -0.9999999999409677 1.2246467990750595e-16
827781945.4863715 -0.9999999999396277 1.2246467990734185e-16 1.0988379639543467e-05 0.0 1.0988379639543467e-05 0.0 -0.9999999999396277 1.2246467990734185e-16
827869467.3668417 -0.9999999999382544 1.2246467990717367e-16 1.1112660042617507e-05 0.0 1.1112660042617507e-05 0.0 -0.9999999999382544 1.2246467990717367e-16
827956989.2473117 -0.9999999999368467 1.2246467990700128e-16 1.1238619120575973e-05 0.0 1.1238619120575973e-05 0.0 -0.9999999999368467 1.2246467990700128e-16
828044511.1277819 -0.9999999999354038 1.2246467990682457e-16 1.1366283295179242e-05 0.0 1.1366283295179242e-05 0.0 -0.9999999999354038 1.2246467990682457e-16
828132033.008252 -0.9999999999339246 1.2246467990664343e-16 1.149567946376069e-05 0.0 1.149567946376069e-05 0.0 -0.9999999999339246 1.2246467990664343e-16
828219554.8887221 -0.9999999999324083 1.2246467990645773e-16 1.1626835008873693e-05 0.0 1.1626835008873693e-05 0.0 -0.9999999999324083 1.2246467990645773e-16
828307076.7691922 -0.9999999999308538 1.2246467990626734e-16 1.1759777808155537e-05 0.0 1.1759777808155537e-05 0.0 -0.9999999999308538 1.2246467990626734e-16
828394598.6496624 -0.99999999992926 1.2246467990607217e-16 1.1894536244412392e-05 0.0 1.1894536244412392e-05 0.0 -0.99999999992926 1.2246467990607217e-16
828482120.5301325 -0.9999999999276258 1.2246467990587202e-16 1.2031139215937007e-05 0.0 1.2031139215937007e-05 0.0 -0.9999999999276258 1.2246467990587202e-16
828569642.4106026 -0.9999999999259502 1.2246467990566685e-16 1.2169616147057366e-05 0.0 1.2169616147057366e-05 0.0 -0.9999999999259502 1.2246467990566685e-16
828657164.2910727 -0.9999999999242319 1.2246467990545642e-16 1.2309996998928807e-05 0.0 1.2309996998928807e-05 0.0 -0.9999999999242319 1.2246467990545642e-16
828744686.1715429 -0.9999999999224699 1.2246467990524062e-16 1.2452312280569564e-05 0.0 1.2452312280569564e-05 0.0 -0.9999999999224699 1.2246467990524062e-16
828832208.0520129 -0.9999999999206629 1.2246467990501934e-16 1.2596593060152312e-05 0.0 1.2596593060152312e-05 0.0 -0.9999999999206629 1.2246467990501934e-16
828919729.9324831 -0.9999999999188096 1.2246467990479237e-16 1.2742870976552366e-05 0.0 1.2742870976552366e-05 0.0 -0.9999999999188096 1.2246467990479237e-16
829007251.8129532 -0.9999999999169087 1.2246467990455958e-16 1.2891178251162453e-05 0.0 1.2891178251162453e-05 0.0 -0.9999999999169087 1.2246467990455958e-16
829094773.6934233 -0.999999999914959 1.224646799043208e-16 1.3041547699979782e-05 0.0 1.3041547699979782e-05 0.0 -0.999999999914959 1.224646799043208e-16
829182295.5738934 -0.999999999912959 1.2246467990407586e-16 1.3194012745973283e-05 0.0 1.3194012745973283e-05 0.0 -0.999999999912959 1.2246467990407586e-16
829269817.4543636 -0.9999999999109073 1.224646799038246e-16 1.3348607431734874e-05 0.0 1.3348607431734874e-05 0.0 -0.9999999999109073 1.224646799038246e-16
829357339.3348337 -0.9999999999088025 1.2246467990356685e-16 1.3505366432428155e-05 0.0 1.3505366432428155e-05 0.0 -0.9999999999088025 1.2246467990356685e-16
829444861.2153038 -0.9999999999066431 1.224646799033024e-16 1.3664325069034212e-05 0.0 1.3664325069034212e-05 0.0 -0.9999999999066431 1.224646799033024e-16
829532383.0957739 -0.9999999999044275 1.2246467990303107e-16 1.3825519321910855e-05 0.0 1.3825519321910855e-05 0.0 -0.9999999999044275 1.2246467990303107e-16
829619904.9762441 -0.9999999999021542 1.2246467990275267e-16 1.3988985844665004e-05 0.0 1.3988985844665004e-05 0.0 -0.9999999999021542 1.2246467990275267e-16
829707426.8567141 -0.9999999998998214 1.2246467990246698e-16 1.4154761978352053e-05 0.0 1.4154761978352053e-05 0.0 -0.9999999998998214 1.2246467990246698e-16
829794948.7371843 -0.9999999998974275 1.2246467990217382e-16 1.432288576600967e-05 0.0 1.432288576600967e-05 0.0 -0.9999999998974275 1.2246467990217382e-16
829882470.6176544 -0.9999999998949707 1.2246467990187294e-16 1.4493395967530955e-05 0.0 1.4493395967530955e-05 0.0 -0.9999999998949707 1.2246467990187294e-16
829969992.4981245 -0.9999999998924494 1.2246467990156418e-16 1.466633207489196e-05 0.0 1.466633207489196e-05 0.0 -0.9999999998924494 1.2246467990156418e-16
830057514.3785946 -0.9999999998898614 1.2246467990124723e-16 1.4841734327737585e-05 0.0 1.4841734327737585e-05 0.0 -0.9999999998898614 1.2246467990124723e-16
830145036.2590648 -0.9999999998872051 1.2246467990092192e-16 1.5019643729336515e-05 0.0 1.5019643729336515e-05 0.0 -0.9999999998872051 1.2246467990092192e-16
830232558.139535 -0.9999999998844784 1.2246467990058801e-16 1.5200102062918149e-05 0.0 1.5200102062918149e-05 0.0 -0.9999999998844784 1.2246467990058801e-16
830320080.020005 -0.9999999998816793 1.2246467990024523e-16 1.5383151908395007e-05 0.0 1.5383151908395007e-05 0.0 -0.9999999998816793 1.2246467990024523e-16
830407601.9004751 -0.9999999998788056 1.224646798998933e-16 1.5568836659489273e-05 0.0 1.5568836659489273e-05 0.0 -0.9999999998788056 1.224646798998933e-16
830495123.7809453 -0.9999999998758553 1.2246467989953197e-16 1.5757200541264132e-05 0.0 1.5757200541264132e-05 0.0 -0.9999999998758553 1.2246467989953197e-16
830582645.6614153 -0.9999999998728261 1.2246467989916101e-16 1.5948288628080018e-05 0.0 1.5948288628080018e-05 0.0 -0.9999999998728261 1.2246467989916101e-16
830670167.5418855 -0.9999999998697156 1.2246467989878007e-16 1.6142146861982213e-05 0.0 1.6142146861982213e-05 0.0 -0.9999999998697156 1.2246467989878007e-16
830757689.4223557 -0.9999999998665214 1.2246467989838891e-16 1.633882207152901e-05 0.0 1.633882207152901e-05 0.0 -0.9999999998665214 1.2246467989838891e-16
830845211.3028257 -0.9999999998632413 1.224646798979872e-16 1.6538361991079056e-05 0.0 1.6538361991079056e-05 0.0 -0.9999999998632413 1.224646798979872e-16
830932733.1832958 -0.9999999998598725 1.2246467989757466e-16 1.6740815280544304e-05 0.0 1.6740815280544304e-05 0.0 -0.9999999998598725 1.2246467989757466e-16
831020255.063766 -0.9999999998564126 1.2246467989715095e-16 1.6946231545621733e-05 0.0 1.6946231545621733e-05 0.0 -0.9999999998564126 1.2246467989715095e-16
831107776.944236 -0.9999999998528588 1.2246467989671572e-16 1.715466135851953e-05 0.0 1.715466135851953e-05 0.0 -0.9999999998528588 1.2246467989671572e-16
831195298.8247062 -0.9999999998492083 1.2246467989626865e-16 1.736615627919041e-05 0.0 1.736615627919041e-05 0.0 -0.9999999998492083 1.2246467989626865e-16
831282820.7051764 -0.9999999998454583 1.2246467989580941e-16 1.758076887708039e-05 0.0 1.758076887708039e-05 0.0 -0.9999999998454583 1.2246467989580941e-16
831370342.5856465 -0.9999999998416057 1.2246467989533763e-16 1.7798552753415418e-05 0.0 1.7798552753415418e-05 0.0 -0.9999999998416057 1.2246467989533763e-16
831457864.4661165 -0.9999999998376476 1.224646798948529e-16 1.801956256403354e-05 0.0 1.801956256403354e-05 0.0 -0.9999999998376476 1.224646798948529e-16
831545386.3465867 -0.9999999998335809 1.2246467989435485e-16 1.824385404278322e-05 0.0 1.824385404278322e-05 0.0 -0.9999999998335809 1.2246467989435485e-16
831632908.2270569 -0.9999999998294021 1.224646798938431e-16 1.847148402549548e-05 0.0 1.847148402549548e-05 0.0 -0.9999999998294021 1.224646798938431e-16
831720430.1075269 -0.999999999825108 1.2246467989331723e-16 1.8702510474552834e-05 0.0 1.8702510474552834e-05 0.0 -0.999999999825108 1.2246467989331723e-16
831807951.9879969 -0.9999999998206951 1.224646798927768e-16 1.8936992504070147e-05 0.0 1.8936992504070147e-05 0.0 -0.9999999998206951 1.224646798927768e-16
831895473.8684671 -0.9999999998161598 1.224646798922214e-16 1.917499040569911e-05 0.0 1.917499040569911e-05 0.0 -0.9999999998161598 1.224646798922214e-16
831982995.7489372 -0.9999999998114985 1.2246467989165054e-16 1.9416565675078866e-05 0.0 1.9416565675078866e-05 0.0 -0.9999999998114985 1.2246467989165054e-16
832070517.6294073 -0.9999999998067072 1.2246467989106377e-16 1.9661781038947727e-05 0.0 1.9661781038947727e-05 0.0 -0.9999999998067072 1.2246467989106377e-16
832158039.5098774 -0.999999999801782 1.2246467989046062e-16 1.9910700482938676e-05 0.0 1.9910700482938676e-05 0.0 -0.999999999801782 1.2246467989046062e-16
832245561.3903476 -0.9999999997967188 1.2246467988984055e-16 2.0163389280068138e-05 0.0 2.0163389280068138e-05 0.0 -0.9999999997967188 1.2246467988984055e-16
832333083.2708176 -0.9999999997915135 1.224646798892031e-16 2.0419914019948435e-05 0.0 2.0419914019948435e-05 0.0 -0.9999999997915135 1.224646798892031e-16
832420605.1512878 -0.9999999997861617 1.2246467988854768e-16 2.068034263873738e-05 0.0 2.068034263873738e-05 0.0 -0.9999999997861617 1.2246467988854768e-16
832508127.031758 -0.9999999997806588 1.2246467988787377e-16 2.0944744449844836e-05 0.0 2.0944744449844836e-05 0.0 -0.9999999997806588 1.2246467988787377e-16
832595648.912228 -0.9999999997750002 1.224646798871808e-16 2.1213190175423764e-05 0.0 2.1213190175423764e-05 0.0 -0.9999999997750002 1.224646798871808e-16
832683170.7926981 -0.9999999997691812 1.2246467988646817e-16 2.1485751978661426e-05 0.0 2.1485751978661426e-05 0.0 -0.9999999997691812 1.2246467988646817e-16
832770692.6731683 -0.9999999997631966 1.2246467988573527e-16 2.176250349689323e-05 0.0 2.176250349689323e-05 0.0 -0.9999999997631966 1.2246467988573527e-16
832858214.5536383 -0.9999999997570416 1.2246467988498148e-16 2.204351987557021e-05 0.0 2.204351987557021e-05 0.0 -0.9999999997570416 1.2246467988498148e-16
832945736.4341085 -0.9999999997507106 1.2246467988420618e-16 2.2328877803094566e-05 0.0 2.2328877803094566e-05 0.0 -0.9999999997507106 1.2246467988420618e-16
833033258.3145787 -0.9999999997441982 1.2246467988340864e-16 2.2618655546552113e-05 0.0 2.2618655546552113e-05 0.0 -0.9999999997441982 1.2246467988340864e-16
833120780.1950488 -0.9999999997374988 1.2246467988258818e-16 2.2912932988369786e-05 0.0 2.2912932988369786e-05 0.0 -0.9999999997374988 1.2246467988258818e-16
833208302.0755188 -0.9999999997306064 1.2246467988174412e-16 2.3211791663918667e-05 0.0 2.3211791663918667e-05 0.0 -0.9999999997306064 1.2246467988174412e-16
833295823.955989 -0.9999999997235149 1.2246467988087566e-16 2.3515314800096886e-05 0.0 2.3515314800096886e-05 0.0 -0.9999999997235149 1.2246467988087566e-16
833383345.8364592 -0.9999999997162183 1.2246467987998208e-16 2.382358735490997e-05 0.0 2.382358735490997e-05 0.0 -0.9999999997162183 1.2246467987998208e-16
833470867.7169292 -0.9999999997087099 1.2246467987906256e-16 2.4136696058090375e-05 0.0 2.4136696058090375e-05 0.0 -0.9999999997087099 1.2246467987906256e-16
833558389.5973994 -0.9999999997009831 1.224646798781163e-16 2.4454729452776126e-05 0.0 2.4454729452776126e-05 0.0 -0.9999999997009831 1.224646798781163e-16
833645911.4778695 -0.9999999996930309 1.2246467987714245e-16 2.477777793828004e-05 0.0 2.477777793828004e-05 0.0 -0.9999999996930309 1.2246467987714245e-16
833733433.3583395 -0.999999999684846 1.2246467987614008e-16 2.5105933813988854e-05 0.0 2.5105933813988854e-05 0.0 -0.999999999684846 1.2246467987614008e-16
833820955.2388097 -0.9999999996764212 1.2246467987510835e-16 2.5439291324416107e-05 0.0 2.5439291324416107e-05 0.0 -0.9999999996764212 1.2246467987510835e-16
833908477.1192799 -0.9999999996677487 1.2246467987404627e-16 2.5777946705445175e-05 0.0 2.5777946705445175e-05 0.0 -0.9999999996677487 1.2246467987404627e-16
833995998.99975 -0.9999999996588206 1.2246467987295288e-16 2.6121998231801286e-05 0.0 2.6121998231801286e-05 0.0 -0.9999999996588206 1.2246467987295288e-16
834083520.88022 -0.9999999996496286 1.224646798718272e-16 2.6471546265781424e-05 0.0 2.6471546265781424e-05 0.0 -0.9999999996496286 1.224646798718272e-16
834171042.7606902 -0.9999999996401643 1.2246467987066815e-16 2.6826693307286497e-05 0.0 2.6826693307286497e-05 0.0 -0.9999999996401643 1.2246467987066815e-16
834258564.6411602 -0.9999999996304187 1.2246467986947467e-16 2.7187544045185207e-05 0.0 2.7187544045185207e-05 0.0 -0.9999999996304187 1.2246467986947467e-16
834346086.5216303 -0.9999999996203829 1.2246467986824563e-16 2.755420541006046e-05 0.0 2.755420541006046e-05 0.0 -0.9999999996203829 1.2246467986824563e-16
834433608.4021004 -0.9999999996100473 1.2246467986697988e-16 2.7926786628367184e-05 0.0 2.7926786628367184e-05 0.0 -0.9999999996100473 1.2246467986697988e-16
834521130.2825706 -0.9999999995994021 1.2246467986567623e-16 2.8305399278050134e-05 0.0 2.8305399278050134e-05 0.0 -0.9999999995994021 1.2246467986567623e-16
834608652.1630408 -0.9999999995884374 1.2246467986433344e-16 2.8690157345666855e-05 0.0 2.8690157345666855e-05 0.0 -0.9999999995884374 1.2246467986433344e-16
834696174.0435108 -0.9999999995771426 1.2246467986295023e-16 2.9081177285054274e-05 0.0 2.9081177285054274e-05 0.0 -0.9999999995771426 1.2246467986295023e-16
834783695.923981 -0.9999999995655067 1.2246467986152522e-16 2.9478578077593292e-05 0.0 2.9478578077593292e-05 0.0 -0.9999999995655067 1.2246467986152522e-16
834871217.8044511 -0.9999999995535186 1.2246467986005713e-16 2.9882481294105854e-05 0.0 2.9882481294105854e-05 0.0 -0.9999999995535186 1.2246467986005713e-16
834958739.6849211 -0.9999999995411667 1.2246467985854444e-16 3.0293011158451228e-05 0.0 3.0293011158451228e-05 0.0 -0.9999999995411667 1.2246467985854444e-16
835046261.5653913 -0.9999999995284389 1.2246467985698575e-16 3.0710294612863194e-05 0.0 3.0710294612863194e-05 0.0 -0.9999999995284389 1.2246467985698575e-16
835133783.4458615 -0.9999999995153226 1.2246467985537945e-16 3.113446138507088e-05 0.0 3.113446138507088e-05 0.0 -0.9999999995153226 1.2246467985537945e-16
835221305.3263315 -0.9999999995018051 1.2246467985372403e-16 3.1565644057283465e-05 0.0 3.1565644057283465e-05 0.0 -0.9999999995018051 1.2246467985372403e-16
835308827.2068017 -0.9999999994878727 1.2246467985201782e-16 3.2003978137068525e-05 0.0 3.2003978137068525e-05 0.0 -0.9999999994878727 1.2246467985201782e-16
835396349.0872718 -0.9999999994735116 1.2246467985025908e-16 3.244960213019714e-05 0.0 3.244960213019714e-05 0.0 -0.9999999994735116 1.2246467985025908e-16
835483870.9677418 -0.9999999994587075 1.224646798484461e-16 3.2902657615509395e-05 0.0 3.2902657615509395e-05 0.0 -0.9999999994587075 1.224646798484461e-16
835571392.848212 -0.9999999994434454 1.2246467984657705e-16 3.336328932187107e-05 0.0 3.336328932187107e-05 0.0 -0.9999999994434454 1.2246467984657705e-16
835658914.7286822 -0.9999999994277099 1.2246467984464998e-16 3.383164520727124e-05 0.0 3.383164520727124e-05 0.0 -0.9999999994277099 1.2246467984464998e-16
835746436.6091523 -0.9999999994114848 1.22464679842663e-16 3.430787654013938e-05 0.0 3.430787654013938e-05 0.0 -0.9999999994114848 1.22464679842663e-16
835833958.4896224 -0.9999999993947536 1.2246467984061402e-16 3.479213798294677e-05 0.0 3.479213798294677e-05 0.0 -0.9999999993947536 1.2246467984061402e-16
835921480.3700925 -0.999999999377499 1.2246467983850094e-16 3.528458767816192e-05 0.0 3.528458767816192e-05 0.0 -0.999999999377499 1.2246467983850094e-16
836009002.2505627 -0.999999999359703 1.2246467983632156e-16 3.578538733663277e-05 0.0 3.578538733663277e-05 0.0 -0.999999999359703 1.2246467983632156e-16
836096524.1310327 -0.9999999993413473 1.2246467983407363e-16 3.6294702328469906e-05 0.0 3.6294702328469906e-05 0.0 -0.9999999993413473 1.2246467983407363e-16
836184046.0115029 -0.9999999993224125 1.2246467983175477e-16 3.681270177652267e-05 0.0 3.681270177652267e-05 0.0 -0.9999999993224125 1.2246467983175477e-16
836271567.891973 -0.9999999993028786 1.2246467982936257e-16 3.733955865250394e-05 0.0 3.733955865250394e-05 0.0 -0.9999999993028786 1.2246467982936257e-16
836359089.772443 -0.9999999992827251 1.2246467982689448e-16 3.787544987586788e-05 0.0 3.787544987586788e-05 0.0 -0.9999999992827251 1.2246467982689448e-16
836446611.6529132 -0.9999999992619304 1.2246467982434786e-16 3.8420556415530846e-05 0.0 3.8420556415530846e-05 0.0 -0.9999999992619304 1.2246467982434786e-16
836534133.5333834 -0.9999999992404722 1.2246467982172e-16 3.897506339449404e-05 0.0 3.897506339449404e-05 0.0 -0.9999999992404722 1.2246467982172e-16
836621655.4138535 -0.9999999992183274 1.2246467981900804e-16 3.953916019750291e-05 0.0 3.953916019750291e-05 0.0 -0.9999999992183274 1.2246467981900804e-16
836709177.2943236 -0.999999999195472 1.2246467981620906e-16 4.011304058180518e-05 0.0 4.011304058180518e-05 0.0 -0.999999999195472 1.2246467981620906e-16
836796699.1747937 -0.999999999171881 1.2246467981331998e-16 4.06969027911321e-05 0.0 4.06969027911321e-05 0.0 -0.999999999171881 1.2246467981331998e-16
836884221.0552639 -0.9999999991475287 1.224646798103377e-16 4.1290949672978345e-05 0.0 4.1290949672978345e-05 0.0 -0.9999999991475287 1.224646798103377e-16
836971742.9357339 -0.9999999991223881 1.2246467980725886e-16 4.1895388799315284e-05 0.0 4.1895388799315284e-05 0.0 -0.9999999991223881 1.2246467980725886e-16
837059264.8162041 -0.9999999990964316 1.224646798040801e-16 4.251043259083447e-05 0.0 4.251043259083447e-05 0.0 -0.9999999990964316 1.224646798040801e-16
837146786.6966742 -0.9999999990696299 1.2246467980079785e-16 4.3136298444827935e-05 0.0 4.3136298444827935e-05 0.0 -0.9999999990696299 1.2246467980079785e-16
837234308.5771443 -0.999999999041953 1.224646797974084e-16 4.377320886683841e-05 0.0 4.377320886683841e-05 0.0 -0.999999999041953 1.224646797974084e-16
837321830.4576144 -0.99999999901337 1.2246467979390799e-16 4.4421391606196696e-05 0.0 4.4421391606196696e-05 0.0 -0.99999999901337 1.2246467979390799e-16
837409352.3380846 -0.9999999989838481 1.2246467979029259e-16 4.508107979556387e-05 0.0 4.508107979556387e-05 0.0 -0.9999999989838481 1.2246467979029259e-16
837496874.2185547 -0.9999999989533538 1.2246467978655812e-16 4.57525120946218e-05 0.0 4.57525120946218e-05 0.0 -0.9999999989533538 1.2246467978655812e-16
837584396.0990248 -0.9999999989218521 1.224646797827003e-16 4.6435932838045665e-05 0.0 4.6435932838045665e-05 0.0 -0.9999999989218521 1.224646797827003e-16
837671917.9794949 -0.9999999988893065 1.224646797787146e-16 4.7131592187894045e-05 0.0 4.7131592187894045e-05 0.0 -0.9999999988893065 1.224646797787146e-16
837759439.8599651 -0.9999999988556794 1.2246467977459645e-16 4.783974629055989e-05 0.0 4.783974629055989e-05 0.0 -0.9999999988556794 1.2246467977459645e-16
837846961.7404351 -0.9999999988209313 1.2246467977034104e-16 4.856065743844776e-05 0.0 4.856065743844776e-05 0.0 -0.9999999988209313 1.2246467977034104e-16
837934483.6209053 -0.9999999987850214 1.2246467976594336e-16 4.9294594236524746e-05 0.0 4.9294594236524746e-05 0.0 -0.9999999987850214 1.2246467976594336e-16
838022005.5013754 -0.9999999987479075 1.2246467976139821e-16 5.004183177389738e-05 0.0 5.004183177389738e-05 0.0 -0.9999999987479075 1.2246467976139821e-16
838109527.3818455 -0.9999999987095453 1.224646797567002e-16 5.0802651800605594e-05 0.0 5.0802651800605594e-05 0.0 -0.9999999987095453 1.224646797567002e-16
838197049.2623156 -0.9999999986698889 1.2246467975184368e-16 5.157734290979041e-05 0.0 5.157734290979041e-05 0.0 -0.9999999986698889 1.2246467975184368e-16
838284571.1427858 -0.9999999986288904 1.2246467974682283e-16 5.236620072542239e-05 0.0 5.236620072542239e-05 0.0 -0.9999999986288904 1.2246467974682283e-16
838372093.0232558 -0.9999999985865006 1.2246467974163155e-16 5.316952809577551e-05 0.0 5.316952809577551e-05 0.0 -0.9999999985865006 1.2246467974163155e-16
838459614.9037259 -0.9999999985426676 1.2246467973626358e-16 5.398763529285052e-05 0.0 5.398763529285052e-05 0.0 -0.9999999985426676 1.2246467973626358e-16
838547136.784196 -0.9999999984973377 1.2246467973071226e-16 5.482084021793553e-05 0.0 5.482084021793553e-05 0.0 -0.9999999984973377 1.2246467973071226e-16
838634658.6646662 -0.9999999984504551 1.2246467972497079e-16 5.566946861351777e-05 0.0 5.566946861351777e-05 0.0 -0.9999999984504551 1.2246467972497079e-16
838722180.5451362 -0.9999999984019616 1.2246467971903207e-16 5.653385428177441e-05 0.0 5.653385428177441e-05 0.0 -0.9999999984019616 1.2246467971903207e-16
838809702.4256064 -0.9999999983517968 1.2246467971288864e-16 5.74143393098555e-05 0.0 5.74143393098555e-05 0.0 -0.9999999983517968 1.2246467971288864e-16
838897224.3060765 -0.9999999982998976 1.2246467970653282e-16 5.8311274302189664e-05 0.0 5.8311274302189664e-05 0.0 -0.9999999982998976 1.2246467970653282e-16
838984746.1865466 -0.9999999982461986 1.224646796999566e-16 5.922501862006801e-05 0.0 5.922501862006801e-05 0.0 -0.9999999982461986 1.224646796999566e-16
839072268.0670167 -0.9999999981906313 1.2246467969315156e-16 6.015594062875125e-05 0.0 6.015594062875125e-05 0.0 -0.9999999981906313 1.2246467969315156e-16
839159789.9474869 -0.999999998133125 1.2246467968610908e-16 6.110441795235757e-05 0.0 6.110441795235757e-05 0.0 -0.999999998133125 1.2246467968610908e-16
839247311.827957 -0.9999999980736055 1.2246467967882003e-16 6.20708377368061e-05 0.0 6.20708377368061e-05 0.0 -0.9999999980736055 1.2246467967882003e-16
839334833.7084271 -0.9999999980119958 1.2246467967127502e-16 6.305559692109774e-05 0.0 6.305559692109774e-05 0.0 -0.9999999980119958 1.2246467967127502e-16
839422355.5888972 -0.9999999979482157 1.2246467966346421e-16 6.405910251723335e-05 0.0 6.405910251723335e-05 0.0 -0.9999999979482157 1.2246467966346421e-16
839509877.4693674 -0.9999999978821814 1.2246467965537735e-16 6.508177189904801e-05 0.0 6.508177189904801e-05 0.0 -0.9999999978821814 1.2246467965537735e-16
839597399.3498374 -0.9999999978138061 1.224646796470038e-16 6.61240331003004e-05 0.0 6.61240331003004e-05 0.0 -0.9999999978138061 1.224646796470038e-16
839684921.2303076 -0.9999999977429989 1.224646796383324e-16 6.718632512234984e-05 0.0 6.718632512234984e-05 0.0 -0.9999999977429989 1.224646796383324e-16
839772443.1107777 -0.9999999976696651 1.224646796293516e-16 6.826909825172402e-05 0.0 6.826909825172402e-05 0.0 -0.9999999976696651 1.224646796293516e-16
839859964.9912478 -0.9999999975937063 1.2246467962004933e-16 6.937281438797435e-05 0.0 6.937281438797435e-05 0.0 -0.9999999975937063 1.2246467962004933e-16
839947486.8717179 -0.9999999975150197 1.22464679610413e-16 7.049794738216043e-05 0.0 7.049794738216043e-05 0.0 -0.9999999975150197 1.22464679610413e-16
840035008.7521881 -0.9999999974334981 1.224646796004295e-16 7.164498338634917e-05 0.0 7.164498338634917e-05 0.0 -0.9999999974334981 1.224646796004295e-16
840122530.6326581 -0.99999999734903 1.2246467959008514e-16 7.281442121453051e-05 0.0 7.281442121453051e-05 0.0 -0.99999999734903 1.2246467959008514e-16
840210052.5131283 -0.9999999972614988 1.2246467957936565e-16 7.400677271536208e-05 0.0 7.400677271536208e-05 0.0 -0.9999999972614988 1.2246467957936565e-16
840297574.3935984 -0.9999999971707829 1.2246467956825615e-16 7.522256315715297e-05 0.0 7.522256315715297e-05 0.0 -0.9999999971707829 1.2246467956825615e-16
840385096.2740686 -0.9999999970767559 1.2246467955674117e-16 7.646233162557223e-05 0.0 7.646233162557223e-05 0.0 -0.9999999970767559 1.2246467955674117e-16
840472618.1545386 -0.9999999969792853 1.2246467954480447e-16 7.772663143449323e-05 0.0 7.772663143449323e-05 0.0 -0.9999999969792853 1.2246467954480447e-16
840560140.0350088 -0.9999999968782334 1.2246467953242917e-16 7.901603055051061e-05 0.0 7.901603055051061e-05 0.0 -0.9999999968782334 1.2246467953242917e-16
840647661.915479 -0.9999999967734562 1.2246467951959765e-16 8.033111203157462e-05 0.0 8.033111203157462e-05 0.0 -0.9999999967734562 1.2246467951959765e-16
840735183.7959489 -0.9999999966648034 1.2246467950629154e-16 8.167247448031355e-05 0.0 8.167247448031355e-05 0.0 -0.9999999966648034 1.2246467950629154e-16
840822705.676419 -0.9999999965521184 1.224646794924916e-16 8.304073251257222e-05 0.0 8.304073251257222e-05 0.0 -0.9999999965521184 1.224646794924916e-16
840910227.5568892 -0.9999999964352373 1.224646794781778e-16 8.443651724168433e-05 0.0 8.443651724168433e-05 0.0 -0.9999999964352373 1.224646794781778e-16
840997749.4373593 -0.9999999963139893 1.224646794633292e-16 8.586047677916225e-05 0.0 8.586047677916225e-05 0.0 -0.9999999963139893 1.224646794633292e-16
841085271.3178294 -0.9999999961881958 1.2246467944792395e-16 8.731327675232191e-05 0.0 8.731327675232191e-05 0.0 -0.9999999961881958 1.2246467944792395e-16
841172793.1982995 -0.9999999960576706 1.224646794319392e-16 8.879560083953002e-05 0.0 8.879560083953002e-05 0.0 -0.9999999960576706 1.224646794319392e-16
841260315.0787697 -0.9999999959222189 1.2246467941535116e-16 9.030815132372603e-05 0.0 9.030815132372603e-05 0.0 -0.9999999959222189 1.2246467941535116e-16
841347836.9592397 -0.9999999957816372 1.2246467939813487e-16 9.185164966490207e-05 0.0 9.185164966490207e-05 0.0 -0.9999999957816372 1.2246467939813487e-16
841435358.8397099 -0.9999999956357131 1.224646793802643e-16 9.342683709227357e-05 0.0 9.342683709227357e-05 0.0 -0.9999999956357131 1.224646793802643e-16
841522880.72018 -0.9999999954842242 1.224646793617123e-16 9.503447521686206e-05 0.0 9.503447521686206e-05 0.0 -0.9999999954842242 1.224646793617123e-16
841610402.6006501 -0.9999999953269386 1.2246467934245036e-16 9.667534666531624e-05 0.0 9.667534666531624e-05 0.0 -0.9999999953269386 1.2246467934245036e-16
841697924.4811202 -0.9999999951636136 1.2246467932244882e-16 9.835025573572991e-05 0.0 9.835025573572991e-05 0.0 -0.9999999951636136 1.2246467932244882e-16
841785446.3615904 -0.9999999949939953 1.2246467930167655e-16 0.00010006002907634265 0.0 0.00010006002907634265 0.0 -0.9999999949939953 1.2246467930167655e-16
841872968.2420604 -0.9999999948178184 1.224646792801011e-16 0.0001018055163879866 0.0 0.0001018055163879866 0.0 -0.9999999948178184 1.224646792801011e-16
841960490.1225306 -0.9999999946348055 1.2246467925768849e-16 0.00010358759115122782 0.0 0.00010358759115122782 0.0 -0.9999999946348055 1.2246467925768849e-16
842048012.0030007 -0.9999999944446661 1.2246467923440314e-16 0.00010540715137908796 0.0 0.00010540715137908796 0.0 -0.9999999944446661 1.2246467923440314e-16
842135533.8834709 -0.999999994247097 1.2246467921020789e-16 0.0001072651203964563 0.0 0.0001072651203964563 0.0 -0.999999994247097 1.2246467921020789e-16
842223055.7639409 -0.99999999404178 1.224646791850638e-16 0.00010916244764713237 0.0 0.00010916244764713237 0.0 -0.99999999404178 1.224646791850638e-16
842310577.6444111 -0.9999999938283828 1.224646791589302e-16 0.00011110010952966399 0.0 0.00011110010952966399 0.0 -0.9999999938283828 1.224646791589302e-16
842398099.5248812 -0.9999999936065573 1.2246467913176442e-16 0.0001130791102630312 0.0 0.0001130791102630312 0.0 -0.9999999936065573 1.2246467913176442e-16
842485621.4053513 -0.9999999933759394 1.2246467910352184e-16 0.00011510048278347111 0.0 0.00011510048278347111 0.0 -0.9999999933759394 1.2246467910352184e-16
842573143.2858214 -0.9999999931361474 1.224646790741558e-16 0.00011716528967357188 0.0 0.00011716528967357188 0.0 -0.9999999931361474 1.224646790741558e-16
842660665.1662916 -0.999999992886782 1.2246467904361735e-16 0.00011927462412498265 0.0 0.00011927462412498265 0.0 -0.999999992886782 1.2246467904361735e-16
842748187.0467616 -0.9999999926274248 1.2246467901185525e-16 0.00012142961093607836 0.0 0.00012142961093607836 0.0 -0.9999999926274248 1.2246467901185525e-16
842835708.9272318 -0.9999999923576375 1.2246467897881585e-16 0.00012363140754597388 0.0 0.00012363140754597388 0.0 -0.9999999923576375 1.2246467897881585e-16
842923230.807702 -0.9999999920769611 1.224646789444429e-16 0.000125881205106347 0.0 0.000125881205106347 0.0 -0.9999999920769611 1.224646789444429e-16
843010752.6881721 -0.9999999917849144 1.224646789086775e-16 0.00012818022959262688 0.0 0.00012818022959262688 0.0 -0.9999999917849144 1.224646789086775e-16
843098274.5686421 -0.9999999914809931 1.2246467887145787e-16 0.00013052974295612771 0.0 0.00013052974295612771 0.0 -0.9999999914809931 1.2246467887145787e-16
843185796.4491123 -0.9999999911646688 1.224646788327193e-16 0.00013293104431880633 0.0 0.00013293104431880633 0.0 -0.9999999911646688 1.224646788327193e-16
843273318.3295825 -0.999999990835387 1.2246467879239392e-16 0.00013538547121236873 0.0 0.00013538547121236873 0.0 -0.999999990835387 1.2246467879239392e-16
843360840.2100525 -0.999999990492567 1.224646787504106e-16 0.0001378944008635884 0.0 0.0001378944008635884 0.0 -0.999999990492567 1.224646787504106e-16
843448362.0905226 -0.9999999901355993 1.2246467870669464e-16 0.00014045925152773 0.0 0.00014045925152773 0.0 -0.9999999901355993 1.2246467870669464e-16
843535883.9709928 -0.9999999897638444 1.224646786611678e-16 0.00014308148387202568 0.0 0.00014308148387202568 0.0 -0.9999999897638444 1.224646786611678e-16
843623405.8514628 -0.9999999893766318 1.2246467861374794e-16 0.00014576260241135926 0.0 0.00014576260241135926 0.0 -0.9999999893766318 1.2246467861374794e-16
843710927.731933 -0.9999999889732576 1.2246467856434885e-16 0.00014850415699831836 0.0 0.00014850415699831836 0.0 -0.9999999889732576 1.2246467856434885e-16
843798449.6124032 -0.9999999885529831 1.2246467851288007e-16 0.00015130774436981098 0.0 0.00015130774436981098 0.0 -0.9999999885529831 1.2246467851288007e-16
843885971.4928733 -0.9999999881150331 1.2246467845924664e-16 0.00015417500975278912 0.0 0.00015417500975278912 0.0 -0.9999999881150331 1.2246467845924664e-16
843973493.3733433 -0.9999999876585933 1.224646784033489e-16 0.00015710764853140403 0.0 0.00015710764853140403 0.0 -0.9999999876585933 1.224646784033489e-16
844061015.2538135 -0.9999999871828089 1.2246467834508213e-16 0.00016010740797835335 0.0 0.00016010740797835335 0.0 -0.9999999871828089 1.2246467834508213e-16
844148537.1342837 -0.9999999866867819 1.2246467828433634e-16 0.00016317608905301584 0.0 0.00016317608905301584 0.0 -0.9999999866867819 1.2246467828433634e-16
844236059.0147537 -0.9999999861695691 1.2246467822099603e-16 0.00016631554826934263 0.0 0.00016631554826934263 0.0 -0.9999999861695691 1.2246467822099603e-16
844323580.8952239 -0.9999999856301794 1.2246467815493985e-16 0.00016952769963645776 0.0 0.00016952769963645776 0.0 -0.9999999856301794 1.2246467815493985e-16
844411102.775694 -0.9999999850675713 1.2246467808604022e-16 0.000172814516675043 0.0 0.000172814516675043 0.0 -0.9999999850675713 1.2246467808604022e-16
844498624.656164 -0.99999998448065 1.224646780141631e-16 0.00017617803451294646 0.0 0.00017617803451294646 0.0 -0.99999998448065 1.224646780141631e-16
844586146.5366342 -0.9999999838682644 1.2246467793916749e-16 0.00017962035206326978 0.0 0.00017962035206326978 0.0 -0.9999999838682644 1.2246467793916749e-16
844673668.4171044 -0.9999999832292045 1.2246467786090521e-16 0.00018314363428866841 0.0 0.00018314363428866841 0.0 -0.9999999832292045 1.2246467786090521e-16
844761190.2975744 -0.9999999825621972 1.224646777792204e-16 0.000186750114555589 0.0 0.000186750114555589 0.0 -0.9999999825621972 1.224646777792204e-16
844848712.1780444 -0.9999999818659037 1.2246467769394901e-16 0.00019044209708244346 0.0 0.00019044209708244346 0.0 -0.9999999818659037 1.2246467769394901e-16
844936234.0585146 -0.9999999811389151 1.224646776049186e-16 0.00019422195948579107 0.0 0.00019422195948579107 0.0 -0.9999999811389151 1.224646776049186e-16
845023755.9389848 -0.9999999803797488 1.2246467751194754e-16 0.00019809215542897655 0.0 0.00019809215542897655 0.0 -0.9999999803797488 1.2246467751194754e-16
845111277.8194548 -0.9999999795868444 1.2246467741484475e-16 0.0002020552173777208 0.0 0.0002020552173777208 0.0 -0.9999999795868444 1.2246467741484475e-16
845198799.699925 -0.9999999787585588 1.2246467731340902e-16 0.0002061137594675129 0.0 0.0002061137594675129 0.0 -0.9999999787585588 1.2246467731340902e-16
845286321.5803951 -0.9999999778931623 1.2246467720742852e-16 0.00021027048048774739 0.0 0.00021027048048774739 0.0 -0.9999999778931623 1.2246467720742852e-16
845373843.4608651 -0.9999999769888326 1.2246467709668006e-16 0.00021452816698795256 0.0 0.00021452816698795256 0.0 -0.9999999769888326 1.2246467709668006e-16
845461365.3413353 -0.9999999760436501 1.224646769809286e-16 0.0002188896965116422 0.0 0.0002188896965116422 0.0 -0.9999999760436501 1.224646769809286e-16
845548887.2218055 -0.9999999750555925 1.2246467685992644e-16 0.0002233580409635129 0.0 0.0002233580409635129 0.0 -0.9999999750555925 1.2246467685992644e-16
845636409.1022756 -0.999999974022528 1.2246467673341253e-16 0.00022793627011622155 0.0 0.00022793627011622155 0.0 -0.999999974022528 1.2246467673341253e-16
845723930.9827456 -0.9999999729422099 1.224646766011117e-16 0.0002326275552630485 0.0 0.0002326275552630485 0.0 -0.9999999729422099 1.224646766011117e-16
845811452.8632158 -0.9999999718122689 1.2246467646273384e-16 0.00023743517302323854 0.0 0.00023743517302323854 0.0 -0.9999999718122689 1.2246467646273384e-16
845898974.743686 -0.9999999706302066 1.2246467631797298e-16 0.0002423625093070161 0.0 0.0002423625093070161 0.0 -0.9999999706302066 1.2246467631797298e-16
845986496.624156 -0.9999999693933875 1.2246467616650631e-16 0.0002474130634478145 0.0 0.0002474130634478145 0.0 -0.9999999693933875 1.2246467616650631e-16
846074018.5046262 -0.9999999680990311 1.2246467600799337e-16 0.00025259045250952325 0.0 0.00025259045250952325 0.0 -0.9999999680990311 1.2246467600799337e-16
846161540.3850963 -0.999999966744203 1.224646758420748e-16 0.00025789841577678686 0.0 0.00025789841577678686 0.0 -0.999999966744203 1.224646758420748e-16
846249062.2655663 -0.9999999653258058 1.2246467566837122e-16 0.0002633408194372852 0.0 0.0002633408194372852 0.0 -0.9999999653258058 1.2246467566837122e-16
846336584.1460365 -0.9999999638405693 1.224646754864822e-16 0.0002689216614648853 0.0 0.0002689216614648853 0.0 -0.9999999638405693 1.224646754864822e-16
846424106.0265067 -0.9999999622850402 1.2246467529598485e-16 0.000274645076713274 0.0 0.000274645076713274 0.0 -0.9999999622850402 1.2246467529598485e-16
846511627.9069768 -0.9999999606555706 1.2246467509643237e-16 0.00028051534223013606 0.0 0.00028051534223013606 0.0 -0.9999999606555706 1.2246467509643237e-16
846599149.7874469 -0.9999999589483065 1.2246467488735283e-16 0.0002865368828025311 0.0 0.0002865368828025311 0.0 -0.9999999589483065 1.2246467488735283e-16
846686671.667917 -0.9999999571591752 1.2246467466824742e-16 0.0002927142767445605 0.0 0.0002927142767445605 0.0 -0.9999999571591752 1.2246467466824742e-16
846774193.5483872 -0.9999999552838713 1.2246467443858894e-16 0.0002990522619390195 0.0 0.0002990522619390195 0.0 -0.9999999552838713 1.2246467443858894e-16
846861715.4288572 -0.9999999533178432 1.2246467419781994e-16 0.00030555574214555177 0.0 0.00030555574214555177 0.0 -0.9999999533178432 1.2246467419781994e-16
846949237.3093274 -0.9999999512562768 1.2246467394535087e-16 0.0003122297935882699 0.0 0.0003122297935882699 0.0 -0.9999999512562768 1.2246467394535087e-16
847036759.1897975 -0.9999999490940802 1.2246467368055815e-16 0.00031907967183650467 0.0 0.00031907967183650467 0.0 -0.9999999490940802 1.2246467368055815e-16
847124281.0702676 -0.9999999468258655 1.2246467340278195e-16 0.0003261108189932484 0.0 0.0003261108189932484 0.0 -0.9999999468258655 1.2246467340278195e-16
847211802.9507376 -0.9999999444459303 1.2246467311132396e-16 0.00033332887120665947 0.0 0.00033332887120665947 0.0 -0.9999999444459303 1.2246467311132396e-16
847299324.8312078 -0.9999999419482382 1.224646728054449e-16 0.00034073966652049305 0.0 0.00034073966652049305 0.0 -0.9999999419482382 1.224646728054449e-16
847386846.7116779 -0.9999999393263971 1.2246467248436196e-16 0.00034834925308058814 0.0 0.00034834925308058814 0.0 -0.9999999393263971 1.2246467248436196e-16
847474368.592148 -0.999999936573637 1.2246467214724607e-16 0.00035616389771538217 0.0 0.00035616389771538217 0.0 -0.999999936573637 1.2246467214724607e-16
847561890.4726181 -0.9999999336827852 1.2246467179321883e-16 0.0003641900949093133 0.0 0.0003641900949093133 0.0 -0.9999999336827852 1.2246467179321883e-16
847649412.3530883 -0.9999999306462408 1.224646714213494e-16 0.0003724345761889987 0.0 0.0003724345761889987 0.0 -0.9999999306462408 1.224646714213494e-16
847736934.2335583 -0.9999999274559469 1.2246467103065108e-16 0.0003809043199434178 0.0 0.0003809043199434178 0.0 -0.9999999274559469 1.2246467103065108e-16
847824456.1140285 -0.9999999241033607 1.2246467062007767e-16 0.00038960656170034967 0.0 0.00038960656170034967 0.0 -0.9999999241033607 1.2246467062007767e-16
847911977.9944986 -0.9999999205794219 1.2246467018851963e-16 0.000398548804882489 0.0 0.000398548804882489 0.0 -0.9999999205794219 1.2246467018851963e-16
847999499.8749686 -0.999999916874519 1.224646697347999e-16 0.0004077388320682653 0.0 0.0004077388320682653 0.0 -0.999999916874519 1.224646697347999e-16
848087021.7554388 -0.9999999129784523 1.2246466925766933e-16 0.0004171847167835795 0.0 0.0004171847167835795 0.0 -0.9999999129784523 1.2246466925766933e-16
848174543.635909 -0.9999999088803955 1.2246466875580212e-16 0.0004268948358522048 0.0 0.0004268948358522048 0.0 -0.9999999088803955 1.2246466875580212e-16
848262065.5163791 -0.9999999045688533 1.224646682277905e-16 0.00043687788233445166 0.0 0.00043687788233445166 0.0 -0.9999999045688533 1.224646682277905e-16
848349587.3968492 -0.9999999000316179 1.224646676721394e-16 0.0004471428790849365 0.0 0.0004471428790849365 0.0 -0.9999999000316179 1.224646676721394e-16
848437109.2773193 -0.9999998952557189 1.2246466708726045e-16 0.00045769919296269264 0.0 0.00045769919296269264 0.0 -0.9999998952557189 1.2246466708726045e-16
848524631.1577895 -0.9999998902273738 1.224646664714658e-16 0.0004685565497281257 0.0 0.0004685565497281257 0.0 -0.9999998902273738 1.224646664714658e-16
848612153.0382595 -0.9999998849319317 1.2246466582296116e-16 0.0004797250496640344 0.0 0.0004797250496640344 0.0 -0.9999998849319317 1.2246466582296116e-16
848699674.9187297 -0.9999998793538142 1.2246466513983878e-16 0.0004912151839597213 0.0 0.0004912151839597213 0.0 -0.9999998793538142 1.2246466513983878e-16
848787196.7991998 -0.9999998734764518 1.224646644200695e-16 0.0005030378518993638 0.0 0.0005030378518993638 0.0 -0.9999998734764518 1.224646644200695e-16
848874718.6796699 -0.9999998672822152 1.224646636614943e-16 0.0005152043788988266 0.0 0.0005152043788988266 0.0 -0.9999998672822152 1.224646636614943e-16
848962240.56014 -0.9999998607523423 1.2246466286181549e-16 0.0005277265354375275 0.0 0.0005277265354375275 0.0 -0.9999998607523423 1.2246466286181549e-16
849049762.4406102 -0.9999998538668585 1.2246466201858693e-16 0.0005406165569342281 0.0 0.0005406165569342281 0.0 -0.9999998538668585 1.2246466201858693e-16
849137284.3210802 -0.9999998466044927 1.2246466112920362e-16 0.0005538871646196887 0.0 0.0005538871646196887 0.0 -0.9999998466044927 1.2246466112920362e-16
849224806.2015504 -0.9999998389425848 1.2246466019089053e-16 0.000567551587461358 0.0 0.000567551587461358 0.0 -0.9999998389425848 1.2246466019089053e-16
849312328.0820205 -0.9999998308569883 1.2246465920069053e-16 0.0005816235851991883 0.0 0.0005816235851991883 0.0 -0.9999998308569883 1.2246465920069053e-16
849399849.9624907 -0.9999998223219637 1.2246465815545148e-16 0.000596117472555187 0.0 0.000596117472555187 0.0 -0.9999998223219637 1.2246465815545148e-16
849487371.8429607 -0.999999813310065 1.224646570518122e-16 0.0006110481446832414 0.0 0.0006110481446832414 0.0 -0.999999813310065 1.224646570518122e-16
849574893.7234309 -0.9999998037920168 1.2246465588618745e-16 0.0006264311039299104 0.0 0.0006264311039299104 0.0 -0.9999998037920168 1.2246465588618745e-16
849662415.603901 -0.9999997937365815 1.224646546547518e-16 0.0006422824879810124 0.0 0.0006422824879810124 0.0 -0.9999997937365815 1.224646546547518e-16
849749937.4843711 -0.9999997831104174 1.2246465335342202e-16 0.0006586190994742793 0.0 0.0006586190994742793 0.0 -0.9999997831104174 1.2246465335342202e-16
849837459.3648412 -0.9999997718779238 1.2246465197783827e-16 0.0006754584371627535 0.0 0.0006754584371627535 0.0 -0.9999997718779238 1.2246465197783827e-16
849924981.2453114 -0.9999997600010758 1.2246465052334388e-16 0.0006928187287193188 0.0 0.0006928187287193188 0.0 -0.9999997600010758 1.2246465052334388e-16
850012503.1257814 -0.9999997474392444 1.2246464898496323e-16 0.0007107189652784083 0.0 0.0007107189652784083 0.0 -0.9999997474392444 1.2246464898496323e-16
850100025.0062516 -0.999999734149003 1.2246464735737806e-16 0.0007291789378177687 0.0 0.0007291789378177687 0.0 -0.999999734149003 1.2246464735737806e-16
850187546.8867217 -0.9999997200839187 1.2246464563490203e-16 0.0007482192754884388 0.0 0.0007482192754884388 0.0 -0.9999997200839187 1.2246464563490203e-16
850275068.7671919 -0.9999997051943257 1.2246464381145278e-16 0.0007678614860102024 0.0 0.0007678614860102024 0.0 -0.9999997051943257 1.2246464381145278e-16
850362590.6476619 -0.999999689427081 1.224646418805222e-16 0.000788127998255294 0.0 0.000788127998255294 0.0 -0.999999689427081 1.224646418805222e-16
850450112.5281321 -0.9999996727253 1.2246463983514395e-16 0.0008090422071533627 0.0 0.0008090422071533627 0.0 -0.9999996727253 1.2246463983514395e-16
850537634.4086022 -0.9999996550280705 1.224646376678584e-16 0.0008306285210574825 0.0 0.0008306285210574825 0.0 -0.9999996550280705 1.224646376678584e-16
850625156.2890723 -0.9999996362701429 1.224646353706748e-16 0.000852912411722392 0.0 0.000852912411722392 0.0 -0.9999996362701429 1.224646353706748e-16
850712678.1695424 -0.9999996163815941 1.2246463293503002e-16 0.000875920467054975 0.0 0.000875920467054975 0.0 -0.9999996163815941 1.2246463293503002e-16
850800200.0500126 -0.999999595287465 1.2246463035174425e-16 0.0008996804468078447 0.0 0.0008996804468078447 0.0 -0.999999595287465 1.2246463035174425e-16
850887721.9304826 -0.9999995729073649 1.2246462761097247e-16 0.0009242213413996836 0.0 0.0009242213413996836 0.0 -0.9999995729073649 1.2246462761097247e-16
850975243.8109528 -0.9999995491550451 1.2246462470215223e-16 0.0009495734340575463 0.0 0.0009495734340575463 0.0 -0.9999995491550451 1.2246462470215223e-16
851062765.6914229 -0.9999995239379341 1.224646216139468e-16 0.0009757683664897634 0.0 0.0009757683664897634 0.0 -0.9999995239379341 1.224646216139468e-16
851150287.5718931 -0.9999994971566347 1.2246461833418356e-16 0.0010028392083136402 0.0 0.0010028392083136402 0.0 -0.9999994971566347 1.2246461833418356e-16
851237809.4523631 -0.9999994687043758 1.2246461484978676e-16 0.0010308205304767342 0.0 0.0010308205304767342 0.0 -0.9999994687043758 1.2246461484978676e-16
851325331.3328332 -0.9999994384664188 1.2246461114670503e-16 0.0010597484829280093 0.0 0.0010597484829280093 0.0 -0.9999994384664188 1.2246461114670503e-16
851412853.2133033 -0.9999994063194105 1.2246460720983197e-16 0.0010896608768125845 0.0 0.0010896608768125845 0.0 -0.9999994063194105 1.2246460720983197e-16
851500375.0937734 -0.9999993721306805 1.2246460302292007e-16 0.001120597271484145 0.0 0.001120597271484145 0.0 -0.9999993721306805 1.2246460302292007e-16
851587896.9742435 -0.9999993357574751 1.2246459856848713e-16 0.0011525990666502964 0.0 0.0011525990666502964 0.0 -0.9999993357574751 1.2246459856848713e-16
851675418.8547137 -0.9999992970461252 1.2246459382771405e-16 0.0011857095999869781 0.0 0.0011857095999869781 0.0 -0.9999992970461252 1.2246459382771405e-16
851762940.7351837 -0.999999255831137 1.224645887803337e-16 0.001219974250585997 0.0 0.001219974250585997 0.0 -0.999999255831137 1.224645887803337e-16
851850462.6156539 -0.9999992119342039 1.2246458340450985e-16 0.0012554405486227566 0.0 0.0012554405486227566 0.0 -0.9999992119342039 1.2246458340450985e-16
851937984.496124 -0.9999991651631261 1.2246457767670478e-16 0.001292158291662017 0.0 0.001292158291662017 0.0 -0.9999991651631261 1.2246457767670478e-16
852025506.3765942 -0.999999115310634 1.2246457157153528e-16 0.0013301796680502817 0.0 0.0013301796680502817 0.0 -0.999999115310634 1.2246457157153528e-16
852113028.2570642 -0.9999990621531017 1.2246456506161513e-16 0.0013695593878758246 0.0 0.0013695593878758246 0.0 -0.9999990621531017 1.2246456506161513e-16
852200550.1375344 -0.9999990054491434 1.2246455811738302e-16 0.0014103548220152896 0.0 0.0014103548220152896 0.0 -0.9999990054491434 1.2246455811738302e-16
852288072.0180045 -0.9999989449380778 1.2246455070691474e-16 0.0014526261498229635 0.0 0.0014526261498229635 0.0 -0.9999989449380778 1.2246455070691474e-16
852375593.8984746 -0.9999988803382499 1.224645427957175e-16 0.0014964365160633811 0.0 0.0014964365160633811 0.0 -0.9999988803382499 1.224645427957175e-16
852463115.7789447 -0.9999988113451937 1.2246453434650493e-16 0.0015418521977331112 0.0 0.0015418521977331112 0.0 -0.9999988113451937 1.2246453434650493e-16
852550637.6594149 -0.9999987376296219 1.2246452531895103e-16 0.0015889427814661102 0.0 0.0015889427814661102 0.0 -0.9999987376296219 1.2246452531895103e-16
852638159.5398849 -0.9999986588352217 1.2246451566942002e-16 0.0016377813522745913 0.0 0.0016377813522745913 0.0 -0.9999986588352217 1.2246451566942002e-16
852725681.4203551 -0.999998574576241 1.2246450535067093e-16 0.001688444694433566 0.0 0.001688444694433566 0.0 -0.999998574576241 1.2246450535067093e-16
852813203.3008252 -0.9999984844348386 1.2246449431153294e-16 0.0017410135053800263 0.0 0.0017410135053800263 0.0 -0.9999984844348386 1.2246449431153294e-16
852900725.1812954 -0.9999983879581774 1.224644824965495e-16 0.0017955726235725545 0.0 0.0017955726235725545 0.0 -0.9999983879581774 1.224644824965495e-16
852988247.0617654 -0.999998284655232 1.2246446984558736e-16 0.0018522112713263326 0.0 0.0018522112713263326 0.0 -0.999998284655232 1.2246446984558736e-16
853075768.9422356 -0.9999981739932801 1.2246445629340683e-16 0.0019110233137244839 0.0 0.0019110233137244839 0.0 -0.9999981739932801 1.2246445629340683e-16
853163290.8227057 -0.9999980553940448 1.2246444176918946e-16 0.001972107534796363 0.0 0.001972107534796363 0.0 -0.9999980553940448 1.2246444176918946e-16
853250812.7031758 -0.9999979282294506 1.2246442619601811e-16 0.0020355679322488773 0.0 0.0020355679322488773 0.0 -0.9999979282294506 1.2246442619601811e-16
853338334.5836459 -0.9999977918169484 1.224644094903047e-16 0.0021015140321456204 0.0 0.0021015140321456204 0.0 -0.9999977918169484 1.224644094903047e-16
853425856.4641161 -0.9999976454143678 1.2246439156115955e-16 0.002170061225042339 0.0 0.002170061225042339 0.0 -0.9999976454143678 1.2246439156115955e-16
853513378.3445861 -0.9999974882142391 1.2246437230969608e-16 0.002241331125217145 0.0 0.002241331125217145 0.0 -0.9999974882142391 1.2246437230969608e-16
853600900.2250563 -0.9999973193375296 1.224643516282639e-16 0.0023154519547695113 0.0 0.0023154519547695113 0.0 -0.9999973193375296 1.224643516282639e-16
853688422.1055264 -0.9999971378267286 1.2246432939960177e-16 0.002392558954513279 0.0 0.002392558954513279 0.0 -0.9999971378267286 1.2246432939960177e-16
853775943.9859965 -0.999996942638206 1.2246430549590184e-16 0.002472794823759265 0.0 0.002472794823759265 0.0 -0.999996942638206 1.2246430549590184e-16
853863465.8664665 -0.9999967326337652 1.224642797777752e-16 0.0025563101912569075 0.0 0.0025563101912569075 0.0 -0.9999967326337652 1.224642797777752e-16
853950987.7469367 -0.9999965065712946 1.224642520931071e-16 0.002643264119769937 0.0 0.002643264119769937 0.0 -0.9999965065712946 1.224642520931071e-16
854038509.6274068 -0.9999962630944176 1.224642222757893e-16 0.002733824646973576 0.0 0.002733824646973576 0.0 -0.9999962630944176 1.224642222757893e-16
854126031.5078769 -0.9999960007210226 1.2246419014431545e-16 0.002828169365603811 0.0 0.002828169365603811 0.0 -0.9999960007210226 1.2246419014431545e-16
854213553.388347 -0.9999957178305426 1.224641555002234e-16 0.002926486046049067 0.0 0.002926486046049067 0.0 -0.9999957178305426 1.224641555002234e-16
854301075.2688172 -0.9999954126498374 1.22464118126366e-16 0.0030289733048618436 0.0 0.0030289733048618436 0.0 -0.9999954126498374 1.22464118126366e-16
854388597.1492872 -0.9999950832375112 1.2246407778499092e-16 0.0031358413229881864 0.0 0.0031358413229881864 0.0 -0.9999950832375112 1.2246407778499092e-16
854476119.0297574 -0.9999947274664811 1.2246403421560559e-16 0.00324731261786045 0.0 0.00324731261786045 0.0 -0.9999947274664811 1.2246403421560559e-16
854563640.9102275 -0.9999943430045803 1.2246398713260198e-16 0.0033636228738783617 0.0 0.0033636228738783617 0.0 -0.9999943430045803 1.2246398713260198e-16
854651162.7906977 -0.9999939272929615 1.2246393622261164e-16 0.0034850218362344094 0.0 0.0034850218362344094 0.0 -0.9999939272929615 1.2246393622261164e-16
854738684.6711677 -0.9999934775220273 1.2246388114155814e-16 0.0036117742735018543 0.0 0.0036117742735018543 0.0 -0.9999934775220273 1.2246388114155814e-16
854826206.5516379 -0.9999929906045814 1.2246382151136897e-16 0.00374416101491894 0.0 0.00374416101491894 0.0 -0.9999929906045814 1.2246382151136897e-16
854913728.432108 -0.9999924631458553 1.2246375691630494e-16 0.0038824800688745118 0.0 0.0038824800688745118 0.0 -0.9999924631458553 1.2246375691630494e-16
855001250.3125781 -0.9999918914100139 1.224636868988581e-16 0.00402704782973235 0.0 0.00402704782973235 0.0 -0.9999918914100139 1.224636868988581e-16
855088772.1930482 -0.9999912712826936 1.2246361095516433e-16 0.004178200380823673 0.0 0.004178200380823673 0.0 -0.9999912712826936 1.2246361095516433e-16
855176294.0735184 -0.9999905982290639 1.2246352852986699e-16 0.004336294902215894 0.0 0.004336294902215894 0.0 -0.9999905982290639 1.2246352852986699e-16
855263815.9539884 -0.9999898672468324 1.2246343901036198e-16 0.004501711192720599 0.0 0.004501711192720599 0.0 -0.9999898672468324 1.2246343901036198e-16
855351337.8344586 -0.9999890728135327 1.2246334172034223e-16 0.004674853316557633 0.0 0.004674853316557633 0.0 -0.9999890728135327 1.2246334172034223e-16
855438859.7149287 -0.9999882088273415 1.224632359125499e-16 0.004856151386143783 0.0 0.004856151386143783 0.0 -0.9999882088273415 1.224632359125499e-16
855526381.5953989 -0.999987268540564 1.2246312076063063e-16 0.005046063493662902 0.0 0.005046063493662902 0.0 -0.999987268540564 1.2246312076063063e-16
855613903.4758689 -0.9999862444848008 1.224629953499694e-16 0.005245077805370069 0.0 0.005245077805370069 0.0 -0.9999862444848008 1.224629953499694e-16
855701425.3563391 -0.999985128386672 1.2246285866736929e-16 0.005453714834055501 0.0 0.005453714834055501 0.0 -0.999985128386672 1.2246285866736929e-16
855788947.2368093 -0.9999839110728019 1.2246270958941585e-16 0.005672529906709911 0.0 0.005672529906709911 0.0 -0.9999839110728019 1.2246270958941585e-16
855876469.1172793 -0.9999825823625816 1.2246254686934402e-16 0.005902115846267794 0.0 0.005902115846267794 0.0 -0.9999825823625816 1.2246254686934402e-16
855963990.9977494 -0.9999811309470018 1.224623691221996e-16 0.006143105888322122 0.0 0.006143105888322122 0.0 -0.9999811309470018 1.224623691221996e-16
856051512.8782196 -0.9999795442515946 1.2246217480805444e-16 0.006396176855994453 0.0 0.006396176855994453 0.0 -0.9999795442515946 1.2246217480805444e-16
856139034.7586896 -0.9999778082812167 1.2246196221299777e-16 0.006662052618688127 0.0 0.006662052618688127 0.0 -0.9999778082812167 1.2246196221299777e-16
856226556.6391598 -0.9999759074440661 1.2246172942758454e-16 0.0069415078633207564 0.0 0.0069415078633207564 0.0 -0.9999759074440661 1.2246172942758454e-16
856314078.51963 -0.9999738243519103 1.2246147432237046e-16 0.0072353722098362 0.0 0.0072353722098362 0.0 -0.9999738243519103 1.2246147432237046e-16
856401600.4001 -0.9999715395930344 1.2246119452010604e-16 0.007544534706425572 0.0 0.007544534706425572 0.0 -0.9999715395930344 1.2246119452010604e-16
856489122.2805701 -0.999969031473859 1.2246088736409402e-16 0.007869948743951515 0.0 0.007869948743951515 0.0 -0.999969031473859 1.2246088736409402e-16
856576644.1610403 -0.9999662757245283 1.2246054988213432e-16 0.008212637433645411 0.0 0.008212637433645411 0.0 -0.9999662757245283 1.2246054988213432e-16
856664166.0415105 -0.9999632451630055 1.2246017874538747e-16 0.008573699497354105 0.0 0.008573699497354105 0.0 -0.9999632451630055 1.2246017874538747e-16
856751687.9219805 -0.999959909311313 1.224597702213777e-16 0.008954315725441093 0.0 0.008954315725441093 0.0 -0.999959909311313 1.224597702213777e-16
856839209.8024507 -0.9999562339565014 1.2245932012022713e-16 0.009355756064083055 0.0 0.009355756064083055 0.0 -0.9999562339565014 1.2245932012022713e-16
856926731.6829208 -0.9999521806476833 1.2245882373306014e-16 0.009779387401206749 0.0 0.009779387401206749 0.0 -0.9999521806476833 1.2245882373306014e-16
857014253.5633909 -0.999947706118993 1.224582757613363e-16 0.010226682128828813 0.0 0.010226682128828813 0.0 -0.999947706118993 1.224582757613363e-16
857101775.443861 -0.999942761626595 1.2245767023565743e-16 0.010699227569248845 0.0 0.010699227569248845 0.0 -0.999942761626595 1.2245767023565743e-16
857189297.3243312 -0.999937292185795 1.2245700042234054e-16 0.011198736363540303 0.0 0.011198736363540303 0.0 -0.999937292185795 1.2245700042234054e-16
857276819.2048012 -0.9999312356918487 1.22456258715748e-16 0.011727057933361663 0.0 0.011727057933361663 0.0 -0.9999312356918487 1.22456258715748e-16
857364341.0852714 -0.9999245219051468 1.2245543651400855e-16 0.012286191141424829 0.0 0.012286191141424829 0.0 -0.9999245219051468 1.2245543651400855e-16
857451862.9657415 -0.9999170712779606 1.2245452407533503e-16 0.01287829829232148 0.0 0.01287829829232148 0.0 -0.9999170712779606 1.2245452407533503e-16
857539384.8462117 -0.9999087935957717 1.2245351035163532e-16 0.013505720634180953 0.0 0.013505720634180953 0.0 -0.9999087935957717 1.2245351035163532e-16
857626906.7266817 -0.9998995864012132 1.2245238279550082e-16 0.014170995543102501 0.0 0.014170995543102501 0.0 -0.9998995864012132 1.2245238279550082e-16
857714428.6071519 -0.9998893331626612 1.2245112713592345e-16 0.014876875597003694 0.0 0.014876875597003694 0.0 -0.9998893331626612 1.2245112713592345e-16
857801950.4876219 -0.9998779011423066 1.2244972711720995e-16 0.01562634977388707 0.0 0.01562634977388707 0.0 -0.9998779011423066 1.2244972711720995e-16
857889472.368092 -0.9998651389098523 1.2244816419449744e-16 0.016422667042284546 0.0 0.016422667042284546 0.0 -0.9998651389098523 1.2244816419449744e-16
857976994.2485621 -0.9998508734374772 1.224464171779892e-16 0.017269362649320767 0.0 0.017269362649320767 0.0 -0.9998508734374772 1.224464171779892e-16
858064516.1290323 -0.9998349066989931 1.2244446181647144e-16 0.018170287455508274 0.0 0.018170287455508274 0.0 -0.9998349066989931 1.2244446181647144e-16
858152038.0095023 -0.9998170116806784 1.2244227030878147e-16 0.01912964071586635 0.0 0.01912964071586635 0.0 -0.9998170116806784 1.2244227030878147e-16
858239559.8899724 -0.9997969276924794 1.2243981072959527e-16 0.020152006765556774 0.0 0.020152006765556774 0.0 -0.9997969276924794 1.2243981072959527e-16
858327081.7704426 -0.9997743548453272 1.22437046353094e-16 0.021242396136262425 0.0 0.021242396136262425 0.0 -0.9997743548453272 1.22437046353094e-16
858414603.6509128 -0.9997489475322606 1.2243393485463182e-16 0.02240629170874106 0.0 0.02240629170874106 0.0 -0.9997489475322606 1.2243393485463182e-16
858502125.5313828 -0.9997203067166159 1.224304273663114e-16 0.023649700599274393 0.0 0.023649700599274393 0.0 -0.9997203067166159 1.224304273663114e-16
858589647.411853 -0.9996879707881885 1.2242646735718679e-16 0.02497921258554687 0.0 0.02497921258554687 0.0 -0.9996879707881885 1.2242646735718679e-16
858677169.2923231 -0.9996514046960318 1.2242198930241507e-16 0.026402066003448226 0.0 0.026402066003448226 0.0 -0.9996514046960318 1.2242198930241507e-16
858764691.1727931 -0.9996099870019166 1.2241691709776245e-16 0.027926222193991716 0.0 0.027926222193991716 0.0 -0.9996099870019166 1.2241691709776245e-16
858852213.0532633 -0.9995629944182707 1.2241116216604788e-16 0.02956044975267274 0.0 0.02956044975267274 0.0 -0.9995629944182707 1.2241116216604788e-16
858939734.9337335 -0.9995095832946018 1.224046211898839e-16 0.03131442003696579 0.0 0.03131442003696579 0.0 -0.9995095832946018 1.224046211898839e-16
859027256.8142035 -0.9994487673917887 1.2239717338981214e-16 0.033198815626980696 0.0 0.033198815626980696 0.0 -0.9994487673917887 1.2239717338981214e-16
859114778.6946737 -0.9993793911275648 1.223886772478203e-16 0.035225453715998625 0.0 0.035225453715998625 0.0 -0.9993793911275648 1.223886772478203e-16
859202300.5751438 -0.9993000972804514 1.2237896655221436e-16 0.037407426739623245 0.0 0.037407426739623245 0.0 -0.9993000972804514 1.2237896655221436e-16
859289822.455614 -0.9992092878922565 1.223678456095558e-16 0.039759262943995365 0.0 0.039759262943995365 0.0 -0.9992092878922565 1.223678456095558e-16
859377344.336084 -0.999105076796709 1.2235508343109603e-16 0.04229711005544295 0.0 0.04229711005544295 0.0 -0.999105076796709 1.2235508343109603e-16
859464866.2165542 -0.9989852318052106 1.2234040665257279e-16 0.0450389457590835 0.0 0.0450389457590835 0.0 -0.9989852318052106 1.2234040665257279e-16
859552388.0970243 -0.9988471040757445 1.2232349088439637e-16 0.048004819336176 0.0 0.048004819336176 0.0 -0.9988471040757445 1.2232349088439637e-16
859639909.9774944 -0.9986875415458923 1.2230395011025163e-16 0.05121712956640191 0.0 0.05121712956640191 0.0 -0.9986875415458923 1.2230395011025163e-16
859727431.8579645 -0.9985027824839763 1.2228132365087274e-16 0.05470094488907124 0.0 0.05470094488907124 0.0 -0.9985027824839763 1.2228132365087274e-16
859814953.7384347 -0.9982883241487374 1.2225506007949267e-16 0.05848437285553715 0.0 0.05848437285553715 0.0 -0.9982883241487374 1.2225506007949267e-16
859902475.6189047 -0.9980387601753834 1.2222449730737762e-16 0.06259898711308023 0.0 0.06259898711308023 0.0 -0.9980387601753834 1.2222449730737762e-16
859989997.4993749 -0.9977475785289387 1.2218883784024873e-16 0.06708032155289216 0.0 0.06708032155289216 0.0 -0.9977475785289387 1.2218883784024873e-16
860077519.379845 -0.9974069095584727 1.221471179238237e-16 0.0719684428414062 0.0 0.0719684428414062 0.0 -0.9974069095584727 1.221471179238237e-16
860165041.2603152 -0.9970072106813047 1.2209816892876906e-16 0.07730861432909311 0.0 0.07730861432909311 0.0 -0.9970072106813047 1.2209816892876906e-16
860252563.1407851 -0.9965368703045601 1.2204056884508005e-16 0.08315206626171429 0.0 0.08315206626171429 0.0 -0.9965368703045601 1.2204056884508005e-16
860340085.0212553 -0.9959817084623901 1.2197258112777783e-16 0.08955688922879446 0.0 0.08955688922879446 0.0 -0.9959817084623901 1.2197258112777783e-16
860427606.9017254 -0.9953243449306621 1.2189207731327716e-16 0.0965890697146857 0.0 0.0965890697146857 0.0 -0.9953243449306621 1.2189207731327716e-16
860515128.7821954 -0.9945433967822973 1.2179643874825766e-16 0.10432368818600053 0.0 0.10432368818600053 0.0 -0.9945433967822973 1.2179643874825766e-16
860602650.6626656 -0.9936124558312771 1.2168243136267144e-16 0.1128463008562459 0.0 0.1128463008562459 0.0 -0.9936124558312771 1.2168243136267144e-16
860690172.5431358 -0.992498781383845 1.2154604557793744e-16 0.12225452528059147 0.0 0.12225452528059147 0.0 -0.992498781383845 1.2154604557793744e-16
860777694.4236058 -0.9911616242028528 1.2138229105177155e-16 0.13265984587493992 0.0 0.13265984587493992 0.0 -0.9911616242028528 1.2138229105177155e-16
860865216.304076 -0.9895500724871842 1.2118493288674614e-16 0.14418964609363752 0.0 0.14418964609363752 0.0 -0.9895500724871842 1.2118493288674614e-16
860952738.1845461 -0.9876002788439099 1.2094615203232278e-16 0.15698945578423867 0.0 0.15698945578423867 0.0 -0.9876002788439099 1.2094615203232278e-16
861040260.0650163 -0.9852318878405001 1.2065610778617725e-16 0.17122536956375448 0.0 0.17122536956375448 0.0 -0.9852318878405001 1.2065610778617725e-16
861127781.9454863 -0.9823434368670162 1.2030237456226014e-16 0.18708653624539284 0.0 0.18708653624539284 0.0 -0.9823434368670162 1.2030237456226014e-16
861215303.8259565 -0.9788064510961487 1.1986921873196788e-16 0.20478752718992077 0.0 0.20478752718992077 0.0 -0.9788064510961487 1.1986921873196788e-16
861302825.7064266 -0.9744579035359684 1.1933667524691639e-16 0.2245702434346221 0.0 0.2245702434346221 0.0 -0.9744579035359684 1.1933667524691639e-16
861390347.5868967 -0.9690906803141055 1.1867937997302002e-16 0.24670478983664695 0.0 0.24670478983664695 0.0 -0.9690906803141055 1.1867937997302002e-16
861477869.4673668 -0.9624417139556188 1.1786511643616412e-16 0.2714883924556824 0.0 0.2714883924556824 0.0 -0.9624417139556188 1.1786511643616412e-16
861565391.347837 -0.954177589245716 1.168530530487904e-16 0.29924091996455554 0.0 0.29924091996455554 0.0 -0.954177589245716 1.168530530487904e-16
861652913.228307 -0.94387780410942 1.1559169315888336e-16 0.3302948545006103 0.0 0.3302948545006103 0.0 -0.94387780410942 1.1559169315888336e-16
861740435.1087772 -0.9310166740421025 1.1401665898184756e-16 0.36497664672630953 0.0 0.36497664672630953 0.0 -0.9310166740421025 1.1401665898184756e-16
861827956.9892473 -0.9149463868232658 1.1204861640145485e-16 0.4035754071286441 0.0 0.4035754071286441 0.0 -0.9149463868232658 1.1204861640145485e-16
861915478.8697175 -0.8948862891733698 1.09591962963702e-16 0.4462942184809435 0.0 0.4462942184809435 0.0 -0.8948862891733698 1.09591962963702e-16
862003000.7501875 -0.8699273573400074 1.0653537536571558e-16 0.493179878899607 0.0 0.493179878899607 0.0 -0.8699273573400074 1.0653537536571558e-16
862090522.6306577 -0.8390656461354562 1.0275590578142922e-16 0.544030184342091 0.0 0.544030184342091 0.0 -0.8390656461354562 1.0275590578142922e-16
862178044.5111278 -0.8012825523557723 9.81288112955118e-17 0.598286111563873 0.0 0.598286111563873 0.0 -0.8012825523557723 9.81288112955118e-17
862265566.3915979 -0.7556886262014071 9.254516572296139e-17 0.6549310652502521 0.0 0.6549310652502521 0.0 -0.7556886262014071 9.254516572296139e-17
862353088.272068 -0.7017344252124745 8.593768176879647e-17 0.7124386264596537 0.0 0.7124386264596537 0.0 -0.7017344252124745 8.593768176879647e-17
862440610.1525382 -0.6394606550179084 7.831134443483514e-17 0.7688238229165818 0.0 0.7688238229165818 0.0 -0.6394606550179084 7.831134443483514e-17
862528132.0330082 -0.5697155856921358 6.977003684422337e-17 0.8218419260535853 0.0 0.8218419260535853 0.0 -0.5697155856921358 6.977003684422337e-17
862615653.9134784 -0.49423638305360795 6.052650045287661e-17 0.8693275548756564 0.0 0.8693275548756564 0.0 -0.49423638305360795 6.052650045287661e-17
862703175.7939485 -0.41551145159771563 5.088547692082128e-17 0.9095879471448373 0.0 0.9095879471448373 0.0 -0.41551145159771563 5.088547692082128e-17
862790697.6744186 -0.3364275197983621 4.1200488526614696e-17 0.9417093627666249 0.0 0.9417093627666249 0.0 -0.3364275197983621 4.1200488526614696e-17
862878219.5548887 -0.25981270895123637 3.181788023949345e-17 0.9656590269175865 0.0 0.9656590269175865 0.0 -0.25981270895123637 3.181788023949345e-17
862965741.4353589 -0.18803608082802237 2.3027778451025058e-17 0.9821621211932567 0.0 0.9821621211932567 0.0 -0.18803608082802237 2.3027778451025058e-17
863053263.315829 -0.12277969051042663 1.5036175498389663e-17 0.9924339512522553 0.0 0.9924339512522553 0.0 -0.12277969051042663 1.5036175498389663e-17
863140785.1962991 -0.0650039711131854 7.96069051556295e-18 0.9978850052684007 0.0 0.9978850052684007 0.0 -0.0650039711131854 7.96069051556295e-18
863228307.0767692 -0.015051678799463526 1.843299026355708e-18 0.9998867170661473 0.0 0.9998867170661473 0.0 -0.015051678799463526 1.843299026355708e-18
863315828.9572394 -0.027187301553117677 3.3294841824479427e-18 0.9996303569991559 0.0 0.9996303569991559 0.0 -0.027187301553117677 3.3294841824479427e-18
863403350.8377094 -0.06211101506542964 7.606405579167145e-18 0.9980692470001978 0.0 0.9980692470001978 0.0 -0.06211101506542964 7.606405579167145e-18
863490872.7181796 -0.09027189441901763 1.1055118655321776e-17 0.9959171577385348 0.0 0.9959171577385348 0.0 -0.09027189441901763 1.1055118655321776e-17
863578394.5986497 -0.11228285734994044 1.3750684185272343e-17 0.993676285288792 0.0 0.993676285288792 0.0 -0.11228285734994044 1.3750684185272343e-17
863665916.4791198 -0.12875864577048757 1.576838634053755e-17 0.9916759607549989 0.0 0.9916759607549989 0.0 -0.12875864577048757 1.576838634053755e-17
863753438.3595899 -0.1402836414936853 1.7179791252797652e-17 0.9901113573377851 0.0 0.9901113573377851 0.0 -0.1402836414936853 1.7179791252797652e-17
863840960.2400601 -0.14739749792939003 1.8050987404155612e-17 0.9890773365132554 0.0 0.9890773365132554 0.0 -0.14739749792939003 1.8050987404155612e-17
863928482.1205302 -0.1505917200882661 1.8442166798418926e-17 0.9885960417889894 0.0 0.9885960417889894 0.0 -0.1505917200882661 1.8442166798418926e-17
864016004.0010003 -0.15031234114425793 1.8407952745466047e-17 0.9886385588776782 0.0 0.9886385588776782 0.0 -0.15031234114425793 1.8407952745466047e-17
864103525.8814704 -0.14696551255113885 1.7998084453080235e-17 0.9891416168176228 0.0 0.9891416168176228 0.0 -0.14696551255113885 1.7998084453080235e-17
864191047.7619406 -0.14092403236849368 1.7258216516301378e-17 0.9900204124668358 0.0 0.9900204124668358 0.0 -0.14092403236849368 1.7258216516301378e-17
864278569.6424105 -0.1325336483166535 1.6230690819031072e-17 0.9911785066595611 0.0 0.9911785066595611 0.0 -0.1325336483166535 1.6230690819031072e-17
864366091.5228807 -0.12211849618437862 1.4955202546888754e-17 0.9925155277826467 0.0 0.9925155277826467 0.0 -0.12211849618437862 1.4955202546888754e-17
864453613.4033508 -0.10998536741464376 1.3469322815738909e-17 0.9939332064855595 0.0 0.9939332064855595 0.0 -0.10998536741464376 1.3469322815738909e-17
864541135.283821 -0.09642671304610856 1.1808866548421717e-17 0.9953400871114975 0.0 0.9953400871114975 0.0 -0.09642671304610856 1.1808866548421717e-17
864628657.164291 -0.08172243091992926 1.0008111344463205e-17 0.9966551280581148 0.0 0.9966551280581148 0.0 -0.08172243091992926 1.0008111344463205e-17
864716179.0447612 -0.0661405762579106 8.099884500801164e-18 0.9978103147253348 0.0 0.9978103147253348 0.0 -0.0661405762579106 8.099884500801164e-18
864803700.9252313 -0.049937196490725366 6.115542784075926e-18 0.9987523599004143 0.0 0.9987523599004143 0.0 -0.049937196490725366 6.115542784075926e-18
864891222.8057014 -0.03335552598013806 4.084873812545246e-18 0.9994435496247841 0.0 0.9994435496247841 0.0 -0.03335552598013806 4.084873812545246e-18
864978744.6861715 -0.016624787834293612 2.035949320777153e-18 0.9998617986649279 0.0 0.9998617986649279 0.0 -0.016624787834293612 2.035949320777153e-18
865066266.5666417 -4.1159623739296836e-05 5.0406001466439284e-21 0.9999999991529427 0.0 0.9999999991529427 0.0 -4.1159623739296836e-05 5.0406001466439284e-21
865153788.4471117 -0.016445122110112533 2.013946615373668e-18 0.9998647698357931 0.0 0.9998647698357931 0.0 -0.016445122110112533 2.013946615373668e-18
865241310.3275819 -0.03240764661665679 3.968792069698729e-18 0.9994747342683405 0.0 0.9994747342683405 0.0 -0.03240764661665679 3.968792069698729e-18
865328832.208052 -0.047767759071603584 5.8498633249481275e-18 0.9988584690501839 0.0 0.9988584690501839 0.0 -0.047767759071603584 5.8498633249481275e-18
865416354.0885221 -0.06238329736283089 7.639750543564836e-18 0.9980522652697806 0.0 0.9980522652697806 0.0 -0.06238329736283089 7.639750543564836e-18
865503875.9689922 -0.07613082373834912 9.323336960762058e-18 0.9970978375650609 0.0 0.9970978375650609 0.0 -0.07613082373834912 9.323336960762058e-18
865591397.8494624 -0.08890514196230782 1.0887739753188132e-17 0.9960400974522371 0.0 0.9960400974522371 0.0 -0.08890514196230782 1.0887739753188132e-17
865678919.7299325 -0.10061847551734275 1.2322209397740013e-17 0.9949250838050903 0.0 0.9949250838050903 0.0 -0.10061847551734275 1.2322209397740013e-17
865766441.6104026 -0.11119938271255503 1.3617996810609204e-17 0.9937981169655871 0.0 0.9937981169655871 0.0 -0.11119938271255503 1.3617996810609204e-17
865853963.4908727 -0.12059149338686459 1.4768198638062294e-17 0.9927022170433215 0.0 0.9927022170433215 0.0 -0.12059149338686459 1.4768198638062294e-17
865941485.3713429 -0.12875215167212503 1.5767591042860245e-17 0.9916768039234346 0.0 0.9916768039234346 0.0 -0.12875215167212503 1.5767591042860245e-17
866029007.2518129 -0.13565104224366573 1.6612461468470764e-17 0.9907566778670771 0.0 0.9907566778670771 0.0 -0.13565104224366573 1.6612461468470764e-17
866116529.1322831 -0.1412688659868664 1.7300446454999233e-17 0.9899712659985566 0.0 0.9899712659985566 0.0 -0.1412688659868664 1.7300446454999233e-17
866204051.0127532 -0.14559611717018422 1.783038188607491e-17 0.9893441113510334 0.0 0.9893441113510334 0.0 -0.14559611717018422 1.783038188607491e-17
866291572.8932233 -0.14863199973570776 1.8202170272720474e-17 0.9888925769033584 0.0 0.9888925769033584 0.0 -0.14863199973570776 1.8202170272720474e-17
866379094.7736934 -0.1503835064045114 1.841666797628404e-17 0.988627736310025 0.0 0.988627736310025 0.0 -0.1503835064045114 1.841666797628404e-17
866466616.6541636 -0.15086467169011591 1.8475593728971675e-17 0.988554424822343 0.0 0.988554424822343 0.0 -0.15086467169011591 1.8475593728971675e-17
866554138.5346338 -0.15009599897898138 1.8381458471443395e-17 0.9886714272651463 0.0 0.9886714272651463 0.0 -0.15009599897898138 1.8381458471443395e-17
866641660.4151038 -0.14810405265884727 1.8137515402940836e-17 0.9889717840191526 0.0 0.9889717840191526 0.0 -0.14810405265884727 1.8137515402940836e-17
866729182.2955738 -0.14492119877339285 1.7747728220643288e-17 0.9894432000605607 0.0 0.9894432000605607 0.0 -0.14492119877339285 1.7747728220643288e-17
866816704.176044 -0.14058547170123983 1.7216754792554417e-17 0.990068545680823 0.0 0.990068545680823 0.0 -0.14058547170123983 1.7216754792554417e-17
866904226.056514 -0.13514053974303683 1.6549942943135572e-17 0.9908264401589012 0.0 0.9908264401589012 0.0 -0.13514053974303683 1.6549942943135572e-17
866991747.9369842 -0.1286357391423892 1.5753334619668086e-17 0.9916919111373709 0.0 0.9916919111373709 0.0 -0.1286357391423892 1.5753334619668086e-17
867079269.8174543 -0.12112614392488573 1.4833674445067294e-17 0.9926371226474899 0.0 0.9926371226474899 0.0 -0.12112614392488573 1.4833674445067294e-17
867166791.6979244 -0.11267263804594982 1.3798418553446074e-17 0.9936321636479801 0.0 0.9936321636479801 0.0 -0.11267263804594982 1.3798418553446074e-17
867254313.5783945 -0.10334195678073256 1.2655739658914824e-17 0.9946458867198563 0.0 0.9946458867198563 0.0 -0.10334195678073256 1.2655739658914824e-17
867341835.4588647 -0.09320666617997038 1.1414524539649659e-17 0.99564678344261 0.0 0.99564678344261 0.0 -0.09320666617997038 1.1414524539649659e-17
867429357.3393348 -0.08234505284670082 1.0084360539433181e-17 0.9966038793179937 0.0 0.9966038793179937 0.0 -0.08234505284670082 1.0084360539433181e-17
867516879.2198049 -0.07084090129128098 8.675508301508085e-18 0.997487627343938 0.0 0.997487627343938 0.0 -0.07084090129128098 8.675508301508085e-18
867604401.100275 -0.058783142611532606 7.198858744303579e-18 0.9982707759644736 0.0 0.9982707759644736 0.0 -0.058783142611532606 7.198858744303579e-18
867691922.9807452 -0.04626536600056084 5.665873238396762e-18 0.9989291846316405 0.0 0.9989291846316405 0.0 -0.04626536600056084 5.665873238396762e-18
867779444.8612152 -0.0333851932194778 4.08850700151494e-18 0.999442559066652 0.0 0.999442559066652 0.0 -0.0333851932194778 4.08850700151494e-18
867866966.7416854 -0.02024352515829681 2.4791168288567105e-18 0.9997950788482435 0.0 0.9997950788482435 0.0 -0.02024352515829681 2.4791168288567105e-18
867954488.6221555 -0.006943678299691364 8.503553404025964e-19 0.9999758923752464 0.0 0.9999758923752464 0.0 -0.006943678299691364 8.503553404025964e-19
868042010.5026256 -0.006409563395895561 7.849451296715539e-19 0.9999794585375612 0.0 0.9999794585375612 0.0 -0.006409563395895561 7.849451296715539e-19
868129532.3830957 -0.01971094961057998 2.4138951348751544e-18 0.9998057203604355 0.0 0.9998057203604355 0.0 -0.01971094961057998 2.4138951348751544e-18
868217054.2635659 -0.03285578236625538 4.02367287083167e-18 0.9994601030381859 0.0 0.9994601030381859 0.0 -0.03285578236625538 4.02367287083167e-18
868304576.144036 -0.04574091557767206 5.60164658522654e-18 0.9989533365688891 0.0 0.9989533365688891 0.0 -0.04574091557767206 5.60164658522654e-18
868392098.0245061 -0.05826570012691428 7.135490316050511e-18 0.9983011109824133 0.0 0.9983011109824133 0.0 -0.05826570012691428 7.135490316050511e-18
868479619.9049762 -0.07033284306163622 8.613289113036592e-18 0.9975235792636018 0.0 0.9975235792636018 0.0 -0.07033284306163622 8.613289113036592e-18
868567141.7854464 -0.08184915562955743 1.0023630645465107e-17 0.9966447289394192 0.0 0.9966447289394192 0.0 -0.08184915562955743 1.0023630645465107e-17
868654663.6659164 -0.09272617258986075 1.1355681045935801e-17 0.9956916475078192 0.0 0.9956916475078192 0.0 -0.09272617258986075 1.1355681045935801e-17
868742185.5463866 -0.10288063391953427 1.2599243902380825e-17 0.994693709221243 0.0 0.994693709221243 0.0 -0.10288063391953427 1.2599243902380825e-17
868829707.4268568 -0.11223482896708847 1.3744802404739553e-17 0.993681711196663 0.0 0.993681711196663 0.0 -0.11223482896708847 1.3744802404739553e-17
868917229.3073268 -0.12071681165799045 1.478354570002319e-17 0.9926869856017703 0.0 0.9926869856017703 0.0 -0.12071681165799045 1.478354570002319e-17
869004751.187797 -0.12826050299893912 1.570738144546803e-17 0.9917405121151698 0.0 0.9917405121151698 0.0 -0.12826050299893912 1.570738144546803e-17
869092273.0682671 -0.13480570348857948 1.6508937328409604e-17 0.9908720514309348 0.0 0.9908720514309348 0.0 -0.13480570348857948 1.6508937328409604e-17
869179794.9487373 -0.14029804290392092 1.7181554916892477e-17 0.9901093167712995 0.0 0.9901093167712995 0.0 -0.14029804290392092 1.7181554916892477e-17
869267316.8292073 -0.144688898221965 1.7719279607968663e-17 0.9894771966707034 0.0 0.9894771966707034 0.0 -0.144688898221965 1.7719279607968663e-17
869354838.7096775 -0.1479353121934131 1.8116850655852777e-17 0.988997039129156 0.0 0.988997039129156 0.0 -0.1479353121934131 1.8116850655852777e-17
869442360.5901476 -0.14999994541141887 1.8369695302037183e-17 0.9886860049462475 0.0 0.9886860049462475 0.0 -0.14999994541141887 1.8369695302037183e-17
869529882.4706177 -0.15085109373561592 1.847393090911994e-17 0.9885564968775272 0.0 0.9885564968775272 0.0 -0.15085109373561592 1.847393090911994e-17
869617404.3510878 -0.1504628007386806 1.842637873153712e-17 0.9886156713272717 0.0 0.9886156713272717 0.0 -0.1504628007386806 1.842637873153712e-17
869704926.231558 -0.1488150914861038 1.8224592545327756e-17 0.988865040612713 0.0 0.988865040612713 0.0 -0.1488150914861038 1.8224592545327756e-17
869792448.112028 -0.14589434941570173 1.7866904802562464e-17 0.9893001762905782 0.0 0.9893001762905782 0.0 -0.14589434941570173 1.7866904802562464e-17
869879969.9924982 -0.14169385226095876 1.735249226302411e-17 0.9899105273869198 0.0 0.9899105273869198 0.0 -0.14169385226095876 1.735249226302411e-17
869967491.8729683 -0.13621447572570347 1.668146216950176e-17 0.9906793712411558 0.0 0.9906793712411558 0.0 -0.13621447572570347 1.668146216950176e-17
870055013.7534384 -0.12946556482936927 1.5854958956809124e-17 0.9915839185482046 0.0 0.9915839185482046 0.0 -0.12946556482936927 1.5854958956809124e-17
870142535.6339085 -0.12146596243100673 1.4875290209648505e-17 0.9925955973963965 0.0 0.9925955973963965 0.0 -0.12146596243100673 1.4875290209648505e-17
870230057.5143787 -0.11224517248622809 1.3746069120500179e-17 0.9936805428574804 0.0 0.9936805428574804 0.0 -0.11224517248622809 1.3746069120500179e-17
870317579.3948488 -0.10184462242452595 1.2472369086256646e-17 0.9948003180956496 0.0 0.9948003180956496 0.0 -0.10184462242452595 1.2472369086256646e-17
870405101.2753189 -0.09031897533666754 1.1060884404831864e-17 0.9959128891093509 0.0 0.9959128891093509 0.0 -0.09031897533666754 1.1060884404831864e-17
870492623.155789 -0.0777374295387866 9.520089425861791e-18 0.9969738672847459 0.0 0.9969738672847459 0.0 -0.0777374295387866 9.520089425861791e-18
870580145.0362592 -0.06418493209159755 7.860387163946517e-18 0.9979380213682596 0.0 0.9979380213682596 0.0 -0.06418493209159755 7.860387163946517e-18
870667666.9167292 -0.04976322595028409 6.0942375375261915e-18 0.9987610431644903 0.0 0.9987610431644903 0.0 -0.04976322595028409 6.0942375375261915e-18
870755188.7971992 -0.034591649777980744 4.236255317783037e-18 0.9994015297995283 0.0 0.9994015297995283 0.0 -0.034591649777980744 4.236255317783037e-18
870842710.6776694 -0.01880761716126735 2.303268815613489e-18 0.9998231211252895 0.0 0.9998231211252895 0.0 -0.01880761716126735 2.303268815613489e-18
870930232.5581396 -0.0025667196210465747 3.1433249682233953e-19 0.9999967059697682 0.0 0.9999967059697682 0.0 -0.0025667196210465747 3.1433249682233953e-19
871017754.4386096 -0.013957573946504983 1.7093098257449819e-18 0.9999025883202463 0.0 0.9999025883202463 0.0 -0.013957573946504983 1.7093098257449819e-18
871105276.3190798 -0.030574610672842537 3.7443099095673115e-18 0.999532487307043 0.0 0.999532487307043 0.0 -0.030574610672842537 3.7443099095673115e-18
871192798.1995499 -0.0470775836597636 5.765341214052123e-18 0.9988912358794415 0.0 0.9988912358794415 0.0 -0.0470775836597636 5.765341214052123e-18
871280320.08002 -0.06324479303963086 7.745253335872073e-18 0.9979980441631007 0.0 0.9979980441631007 0.0 -0.06324479303963086 7.745253335872073e-18
871367841.9604901 -0.07884098520516943 9.655236017313457e-18 0.9968872047788948 0.0 0.9968872047788948 0.0 -0.07884098520516943 9.655236017313457e-18
871455363.8409603 -0.09361857695494678 1.1464969060860574e-17 0.995608136793252 0.0 0.995608136793252 0.0 -0.09361857695494678 1.1464969060860574e-17
871542885.7214303 -0.1073185434754681 1.3142731075638807e-17 0.9942246879987964 0.0 0.9942246879987964 0.0 -0.1073185434754681 1.3142731075638807e-17
871630407.6019005 -0.11967073789787128 1.465543861182299e-17 0.9928136353268819 0.0 0.9928136353268819 0.0 -0.11967073789787128 1.465543861182299e-17
871717929.4823706 -0.13039341838039448 1.5968588244943175e-17 0.9914623323369756 0.0 0.9914623323369756 0.0 -0.13039341838039448 1.5968588244943175e-17
871805451.3628407 -0.1391917880193684 1.7046077766551642e-17 0.9902654422668556 0.0 0.9902654422668556 0.0 -0.1391917880193684 1.7046077766551642e-17
871892973.2433108 -0.14575540543174853 1.7849889072041557e-17 0.9893206567071299 0.0 0.9893206567071299 0.0 -0.14575540543174853 1.7849889072041557e-17
871980495.123781 -0.1497544042854374 1.833962518663796e-17 0.9887232263869974 0.0 0.9887232263869974 0.0 -0.1497544042854374 1.833962518663796e-17
872068017.0042511 -0.15083457914091106 1.8471908454565486e-17 0.9885590168196253 0.0 0.9885590168196253 0.0 -0.15083457914091106 1.8471908454565486e-17
872155538.8847212 -0.1486115739685536 1.819966883768393e-17 0.9888956467103034 0.0 0.9888956467103034 0.0 -0.1486115739685536 1.819966883768393e-17
872243060.7651913 -0.1426646856590196 1.7471385064368166e-17 0.989771078313472 0.0 0.989771078313472 0.0 -0.1426646856590196 1.7471385064368166e-17
872330582.6456615 -0.13253122576144205 1.6230394141582524e-17 0.9911788305841533 0.0 0.9911788305841533 0.0 -0.13253122576144205 1.6230394141582524e-17
872418104.5261315 -0.11770305080710215 1.4414466442079594e-17 0.993048836578897 0.0 0.993048836578897 0.0 -0.11770305080710215 1.4414466442079594e-17
872505626.4066017 -0.09762787107216984 1.1955965981610327e-17 0.9952229894802048 0.0 0.9952229894802048 0.0 -0.09762787107216984 1.1955965981610327e-17
872593148.2870718 -0.07171935473562496 8.783087821389667e-18 0.9974248513829529 0.0 0.9974248513829529 0.0 -0.07171935473562496 8.783087821389667e-18
872680670.1675419 -0.039381817647886876 4.8228816927089406e-18 0.9992242353139502 0.0 0.9992242353139502 0.0 -0.039381817647886876 4.8228816927089406e-18
872768192.048012 -5.706671031846675e-05 6.988656412937954e-21 0.9999999983716953 0.0 0.9999999983716953 0.0 -5.706671031846675e-05 6.988656412937954e-21
872855713.9284822 -0.046698281401979076 5.718890084461605e-18 0.998909040160365 0.0 0.998909040160365 0.0 -0.046698281401979076 5.718890084461605e-18
872943235.8089523 -0.1010990582187728 1.2381063804443201e-17 0.9948763643927205 0.0 0.9948763643927205 0.0 -0.1010990582187728 1.2381063804443201e-17
873030757.6894224 -0.1629841445600104 1.9959801094718623e-17 0.9866286883230396 0.0 0.9866286883230396 0.0 -0.1629841445600104 1.9959801094718623e-17
873118279.5698925 -0.23165617921202425 2.8369699837471115e-17 0.9727977254459873 0.0 0.9727977254459873 0.0 -0.23165617921202425 2.8369699837471115e-17
873205801.4503626 -0.3057550324628422 3.7444192182881473e-17 0.952110214273351 0.0 0.952110214273351 0.0 -0.3057550324628422 3.7444192182881473e-17
873293323.3308326 -0.3832338147101788 4.693260645098503e-17 0.9236513645649447 0.0 0.9236513645649447 0.0 -0.3832338147101788 4.693260645098503e-17
873380845.2113028 -0.4615014105964367 5.651762252889145e-17 0.8871394749516556 0.0 0.8871394749516556 0.0 -0.4615014105964367 5.651762252889145e-17
873468367.0917729 -0.5377439444050804 6.585464002765541e-17 0.8431082079161997 0.0 0.8431082079161997 0.0 -0.5377439444050804 6.585464002765541e-17
873555888.972243 -0.6093511690390138 7.46239958720326e-17 0.7929004684011652 0.0 0.7929004684011652 0.0 -0.6093511690390138 7.46239958720326e-17
873643410.8527131 -0.6743070079368992 8.257879189125525e-17 0.7384511216371645 0.0 0.7384511216371645 0.0 -0.6743070079368992 8.257879189125525e-17
873730932.7331833 -0.7314128316378079 8.957223831205434e-17 0.6819349453691047 0.0 0.6819349453691047 0.0 -0.7314128316378079 8.957223831205434e-17
873818454.6136534 -0.7802957372535572 9.555866770158929e-17 0.6254107149896998 0.0 0.6254107149896998 0.0 -0.7802957372535572 9.555866770158929e-17
873905976.4941235 -0.8212495035820792 1.005740575863146e-16 0.5705692358217261 0.0 0.5705692358217261 0.0 -0.8212495035820792 1.005740575863146e-16
873993498.3745936 -0.8550025950051892 1.0470761912357857e-16 0.5186237196025579 0.0 0.5186237196025579 0.0 -0.8550025950051892 1.0470761912357857e-16
874081020.2550638 -0.8824964514984169 1.0807464545864337e-16 0.4703190545711519 0.0 0.4703190545711519 0.0 -0.8824964514984169 1.0807464545864337e-16
874168542.1355338 -0.9047183693647758 1.1079604551723855e-16 0.42601017843936667 0.0 0.42601017843936667 0.0 -0.9047183693647758 1.1079604551723855e-16
874256064.016004 -0.9225975770798227 1.1298561696719083e-16 0.3857638017834757 0.0 0.3857638017834757 0.0 -0.9225975770798227 1.1298561696719083e-16
874343585.8964741 -0.936953358562438 1.147436931513852e-16 0.34945443748587246 0.0 0.34945443748587246 0.0 -0.936953358562438 1.147436931513852e-16
874431107.7769442 -0.9484784030375426 1.1615510403403197e-16 0.31684178854966866 0.0 0.31684178854966866 0.0 -0.9484784030375426 1.1615510403403197e-16
874518629.6574143 -0.9577424933175472 1.1728962788487397e-16 0.28762704409336737 0.0 0.28762704409336737 0.0 -0.9577424933175472 1.1728962788487397e-16
874606151.5378845 -0.965205983624021 1.1820364183630298e-16 0.261490743959296 0.0 0.261490743959296 0.0 -0.965205983624021 1.1820364183630298e-16
874693673.4183546 -0.9712366031633874 1.1894217972787905e-16 0.23811648551842135 0.0 0.23811648551842135 0.0 -0.9712366031633874 1.1894217972787905e-16
874781195.2988247 -0.9761260987126763 1.1954097023526723e-16 0.21720460264913932 0.0 0.21720460264913932 0.0 -0.9761260987126763 1.1954097023526723e-16
874868717.1792948 -0.9801051098649614 1.20028258562409e-16 0.1984791515917784 0.0 0.1984791515917784 0.0 -0.9801051098649614 1.20028258562409e-16
874956239.059765 -0.9833557380646459 1.2042634570440517e-16 0.18169065032448797 0.0 0.18169065032448797 0.0 -0.9833557380646459 1.2042634570440517e-16
875043760.940235 -0.9860218160862222 1.2075284609594522e-16 0.16661626031701793 0.0 0.16661626031701793 0.0 -0.9860218160862222 1.2075284609594522e-16
875131282.8207052 -0.9882171257469049 1.2102169399085445e-16 0.15305852599749553 0.0 0.15305852599749553 0.0 -0.9882171257469049 1.2102169399085445e-16
875218804.7011753 -0.990031889264374 1.2124393842414225e-16 0.14084338195177773 0.0 0.14084338195177773 0.0 -0.990031889264374 1.2124393842414225e-16
875306326.5816454 -0.991537857166462 1.2142836630123332e-16 0.12981786397002829 0.0 0.12981786397002829 0.0 -0.991537857166462 1.2142836630123332e-16
875393848.4621155 -0.9927922790865625 1.2158198868015646e-16 0.11984778089772437 0.0 0.11984778089772437 0.0 -0.9927922790865625 1.2158198868015646e-16
875481370.3425857 -0.9938409969105275 1.217104195727892e-16 0.11081549016220073 0.0 0.11081549016220073 0.0 -0.9938409969105275 1.217104195727892e-16
875568892.2230558 -0.9947208538387488 1.218181709698746e-16 0.10261784902399188 0.0 0.10261784902399188 0.0 -0.9947208538387488 1.218181709698746e-16
875656414.1035259 -0.9954615725975964 1.219088828555837e-16 0.09516437086179055 0.0 0.09516437086179055 0.0 -0.9954615725975964 1.219088828555837e-16
875743935.983996 -0.9960872225498834 1.2198550287672919e-16 0.08837559093357795 0.0 0.08837559093357795 0.0 -0.9960872225498834 1.2198550287672919e-16
875831457.8644662 -0.9966173685537021 1.2205042703739493e-16 0.08218163235841935 0.0 0.08218163235841935 0.0 -0.9966173685537021 1.2205042703739493e-16
875918979.7449362 -0.9970679732401819 1.2210561019609275e-16 0.07652095620623053 0.0 0.07652095620623053 0.0 -0.9970679732401819 1.2210561019609275e-16
876006501.6254064 -0.9974521079147781 1.2215265312606133e-16 0.07133927681414877 0.0 0.07133927681414877 0.0 -0.9974521079147781 1.2215265312606133e-16
876094023.5058765 -0.9977805145831014 1.221928713435794e-16 0.06658862303938567 0.0 0.06658862303938567 0.0 -0.9977805145831014 1.221928713435794e-16
876181545.3863466 -0.9980620518447252 1.2222734971420824e-16 0.06222652704029909 0.0 0.06222652704029909 0.0 -0.9980620518447252 1.2222734971420824e-16
876269067.2668167 -0.9983040499198903 1.2225698593102332e-16 0.058215323700425044 0.0 0.058215323700425044 0.0 -0.9983040499198903 1.2225698593102332e-16
876356589.1472869 -0.9985125943455969 1.2228252525736548e-16 0.05452154558727572 0.0 0.05452154558727572 0.0 -0.9985125943455969 1.2228252525736548e-16
876444111.027757 -0.9986927534871738 1.223045883889724e-16 0.05111540014718816 0.0 0.05111540014718816 0.0 -0.9986927534871738 1.223045883889724e-16
876531632.9082271 -0.9988487616417467 1.2232369387768627e-16 0.047970317559392336 0.0 0.047970317559392336 0.0 -0.9988487616417467 1.2232369387768627e-16
876619154.7886972 -0.9989841669186496 1.2234027624158094e-16 0.045062559246582104 0.0 0.045062559246582104 0.0 -0.9989841669186496 1.2234027624158094e-16
876706676.6691674 -0.9991019510840274 1.2235470064169296e-16 0.04237087844368731 0.0 0.04237087844368731 0.0 -0.9991019510840274 1.2235470064169296e-16
876794198.5496374 -0.9992046270125086 1.2236727481640936e-16 0.03987622545820496 0.0 0.03987622545820496 0.0 -0.9992046270125086 1.2236727481640936e-16
876881720.4301076 -0.999294318191344 1.223782588179166e-16 0.037561491324187464 0.0 0.037561491324187464 0.0 -0.999294318191344 1.223782588179166e-16
876969242.3105778 -0.9993728237910295 1.223878729810536e-16 0.03541128447181702 0.0 0.03541128447181702 0.0 -0.9993728237910295 1.223878729810536e-16
877056764.1910478 -0.9994416720896574 1.2239630446590774e-16 0.033411735821858135 0.0 0.033411735821858135 0.0 -0.9994416720896574 1.2239630446590774e-16
877144286.071518 -0.9995021644692481 1.2240371264581162e-16 0.03155032838637548 0.0 0.03155032838637548 0.0 -0.9995021644692481 1.2240371264581162e-16
877231807.951988 -0.9995554117553863 1.2241023355766485e-16 0.02981574802885548 0.0 0.02981574802885548 0.0 -0.9995554117553863 1.2241023355766485e-16
877319329.8324581 -0.9996023643192596 1.2241598358837077e-16 0.028197752522958173 0.0 0.028197752522958173 0.0 -0.9996023643192596 1.2241598358837077e-16
877406851.7129282 -0.9996438370826799 1.224210625370682e-16 0.026687056462198686 0.0 0.026687056462198686 0.0 -0.9996438370826799 1.224210625370682e-16
877494373.5933983 -0.9996805303457296 1.2242555616578263e-16 0.02527522992340016 0.0 0.02527522992340016 0.0 -0.9996805303457296 1.2242555616578263e-16
877581895.4738685 -0.999713047180833 1.224295383295854e-16 0.023954609084966567 0.0 0.023954609084966567 0.0 -0.999713047180833 1.224295383295854e-16
877669417.3543385 -0.9997419079966542 1.2243307276015702e-16 0.02271821725420934 0.0 0.02271821725420934 0.0 -0.9997419079966542 1.2243307276015702e-16
877756939.2348087 -0.9997675627627852 1.2243621456287954e-16 0.021559694973729494 0.0 0.021559694973729494 0.0 -0.9997675627627852 1.2243621456287954e-16
877844461.1152788 -0.9997904012958513 1.2243901147652122e-16 0.02047323806046989 0.0 0.02047323806046989 0.0 -0.9997904012958513 1.2243901147652122e-16
877931982.9957489 -0.999810761934871 1.2244150493566161e-16 0.01945354258773362 0.0 0.01945354258773362 0.0 -0.999810761934871 1.2244150493566161e-16
878019504.876219 -0.9998289388748842 1.2244373096880217e-16 0.018495755954351833 0.0 0.018495755954351833 0.0 -0.9998289388748842 1.2244373096880217e-16
878107026.7566892 -0.9998451883801799 1.2244572095926697e-16 0.017595433299655606 0.0 0.017595433299655606 0.0 -0.9998451883801799 1.2244572095926697e-16
878194548.6371593 -0.9998597340597051 1.2244750229125417e-16 0.01674849862094553 0.0 0.01674849862094553 0.0 -0.9998597340597051 1.2244750229125417e-16
878282070.5176294 -0.999872771355655 1.2244909889952963e-16 0.01595121003441483 0.0 0.01595121003441483 0.0 -0.999872771355655 1.2244909889952963e-16
878369592.3980995 -0.9998844713704305 1.224505317380941e-16 0.015200128692710445 0.0 0.015200128692710445 0.0 -0.9998844713704305 1.224505317380941e-16
878457114.2785697 -0.9998949841360045 1.2245181918056515e-16 0.014492090934690685 0.0 0.014492090934690685 0.0 -0.9998949841360045 1.2245181918056515e-16
878544636.1590397 -0.9999044414123699 1.224529773628881e-16 0.013824183296546593 0.0 0.013824183296546593 0.0 -0.9999044414123699 1.224529773628881e-16
878632158.0395099 -0.9999129590874303 1.2245402047723798e-16 0.013193720059900332 0.0 0.013193720059900332 0.0 -0.9999129590874303 1.2245402047723798e-16
878719679.91998 -0.9999206392388936 1.2245496102452863e-16 0.012598223052575604 0.0 0.012598223052575604 0.0 -0.9999206392388936 1.2245496102452863e-16
878807201.8004501 -0.9999275719089535 1.2245581003174848e-16 0.012035403452508251 0.0 0.012035403452508251 0.0 -0.9999275719089535 1.2245581003174848e-16
878894723.6809202 -0.9999338366344402 1.2245657723934998e-16 0.011503145375448763 0.0 0.011503145375448763 0.0 -0.9999338366344402 1.2245657723934998e-16
878982245.5613904 -0.9999395037683867 1.2245727126309474e-16 0.010999491053344582 0.0 0.010999491053344582 0.0 -0.9999395037683867 1.2245727126309474e-16
879069767.4418604 -0.9999446356233449 1.2245789973406957e-16 0.01052262743310085 0.0 0.01052262743310085 0.0 -0.9999446356233449 1.2245789973406957e-16
879157289.3223306 -0.9999492874621003 1.2245846942001376e-16 0.010070874045374874 0.0 0.010070874045374874 0.0 -0.9999492874621003 1.2245846942001376e-16
879244811.2028008 -0.9999535083575132 1.2245898633061947e-16 0.00964267201043209 0.0 0.00964267201043209 0.0 -0.9999535083575132 1.2245898633061947e-16
879332333.0832709 -0.9999573419399315 1.2245945580906324e-16 0.009236574063311959 0.0 0.009236574063311959 0.0 -0.9999573419399315 1.2245945580906324e-16
879419854.963741 -0.9999608270478557 1.2245988261168966e-16 0.008851235493891793 0.0 0.008851235493891793 0.0 -0.9999608270478557 1.2245988261168966e-16
879507376.8442111 -0.9999639982952173 1.2246027097748272e-16 0.008485405909127863 0.0 0.008485405909127863 0.0 -0.9999639982952173 1.2246027097748272e-16
879594898.7246813 -0.9999668865666674 1.2246062468872136e-16 0.008137921735034519 0.0 0.008137921735034519 0.0 -0.9999668865666674 1.2246062468872136e-16
879682420.6051512 -0.9999695194506248 1.2246094712401247e-16 0.007807699384993953 0.0 0.007807699384993953 0.0 -0.9999695194506248 1.2246094712401247e-16
879769942.4856213 -0.9999719216184224 1.224612413047229e-16 0.00749372902896515 0.0 0.00749372902896515 0.0 -0.9999719216184224 1.224612413047229e-16
879857464.3660915 -0.9999741151567122 1.2246150993568745e-16 0.007195068905201288 0.0 0.007195068905201288 0.0 -0.9999741151567122 1.2246150993568745e-16
879944986.2465616 -0.9999761198592717 1.224617554409447e-16 0.006910840122262204 0.0 0.006910840122262204 0.0 -0.9999761198592717 1.224617554409447e-16
880032508.1270317 -0.9999779534835042 1.2246197999514943e-16 0.0066402219046383494 0.0 0.0066402219046383494 0.0 -0.9999779534835042 1.2246197999514943e-16
880120030.0075018 -0.9999796319761851 1.2246218555121833e-16 0.006382447240148683 0.0 0.006382447240148683 0.0 -0.9999796319761851 1.2246218555121833e-16
880207551.887972 -0.9999811696723914 1.2246237386469203e-16 0.006136798891601714 0.0 0.006136798891601714 0.0 -0.9999811696723914 1.2246237386469203e-16
880295073.768442 -0.9999825794710073 1.2246254651522828e-16 0.0059026057390308756 0.0 0.0059026057390308756 0.0 -0.9999825794710073 1.2246254651522828e-16
880382595.6489122 -0.9999838729897522 1.2246270492558735e-16 0.005679239422235973 0.0 0.005679239422235973 0.0 -0.9999838729897522 1.2246270492558735e-16
880470117.5293823 -0.9999850607022751 1.2246285037842129e-16 0.005466111256392018 0.0 0.005466111256392018 0.0 -0.9999850607022751 1.2246285037842129e-16
880557639.4098524 -0.9999861520595305 1.2246298403113825e-16 0.005262669396185398 0.0 0.005262669396185398 0.0 -0.9999861520595305 1.2246298403113825e-16
880645161.2903225 -0.999987155597357 1.2246310692907694e-16 0.005068396226356093 0.0 0.005068396226356093 0.0 -0.999987155597357 1.2246310692907694e-16
880732683.1707927 -0.9999880790319302 1.224632200171964e-16 0.004882805958682164 0.0 0.004882805958682164 0.0 -0.9999880790319302 1.224632200171964e-16
880820205.0512627 -0.9999889293445487 1.2246332415045904e-16 0.0047054424173593795 0.0 0.0047054424173593795 0.0 -0.9999889293445487 1.2246332415045904e-16
880907726.9317329 -0.9999897128570239 1.2246342010306352e-16 0.004535876996464506 0.0 0.004535876996464506 0.0 -0.9999897128570239 1.2246342010306352e-16
880995248.812203 -0.9999904352987825 1.2246350857666224e-16 0.004373706774733727 0.0 0.004373706774733727 0.0 -0.9999904352987825 1.2246350857666224e-16
881082770.6926732 -0.999991101866657 1.2246359020768362e-16 0.004218552774273332 0.0 0.004218552774273332 0.0 -0.999991101866657 1.2246359020768362e-16
881170292.5731432 -0.9999917172782077 1.224636655738622e-16 0.004070058351065208 0.0 0.004070058351065208 0.0 -0.9999917172782077 1.224636655738622e-16
881257814.4536134 -0.9999922858193293 1.2246373520006867e-16 0.003927887706251548 0.0 0.003927887706251548 0.0 -0.9999922858193293 1.2246373520006867e-16
881345336.3340836 -0.9999928113867889 1.224637995635194e-16 0.00379172450819261 0.0 0.00379172450819261 0.0 -0.9999928113867889 1.224637995635194e-16
881432858.2145536 -0.999993297526276 1.2246385909843608e-16 0.0036612706161922135 0.0 0.0036612706161922135 0.0 -0.999993297526276 1.2246385909843608e-16
881520380.0950238 -0.999993747466465 1.224639142002173e-16 0.00353624489760955 0.0 0.00353624489760955 0.0 -0.999993747466465 1.224639142002173e-16
881607901.9754939 -0.9999941641495396 1.2246396522917666e-16 0.0034163821308147687 0.0 0.0034163821308147687 0.0 -0.9999941641495396 1.2246396522917666e-16
881695423.855964 -0.9999945502585674 1.2246401251389516e-16 0.0033014319871071656 0.0 0.0033014319871071656 0.0 -0.9999945502585674 1.2246401251389516e-16
881782945.7364341 -0.9999949082420743 1.2246405635423074e-16 0.003191158085322667 0.0 0.003191158085322667 0.0 -0.9999949082420743 1.2246405635423074e-16
881870467.6169043 -0.9999952403361212 1.2246409702402191e-16 0.003085337113403139 0.0 0.003085337113403139 0.0 -0.9999952403361212 1.2246409702402191e-16
881957989.4973744 -0.9999955485841563 1.2246413477351886e-16 0.002983758011689099 0.0 0.002983758011689099 0.0 -0.9999955485841563 1.2246413477351886e-16
882045511.3778445 -0.9999958348548802 1.2246416983157143e-16 0.002886221213150438 0.0 0.002886221213150438 0.0 -0.9999958348548802 1.2246416983157143e-16
882133033.2583146 -0.9999961008583359 1.224642024075995e-16 0.0027925379361724884 0.0 0.0027925379361724884 0.0 -0.9999961008583359 1.224642024075995e-16
882220555.1387848 -0.9999963481604128 1.2246423269336918e-16 0.002702529525887076 0.0 0.002702529525887076 0.0 -0.9999963481604128 1.2246423269336918e-16
882308077.0192548 -0.9999965781959309 1.2246426086459527e-16 0.0026160268403694854 0.0 0.0026160268403694854 0.0 -0.9999965781959309 1.2246426086459527e-16
882395598.899725 -0.9999967922804516 1.2246428708238758e-16 0.0025328696783278107 0.0 0.0025328696783278107 0.0 -0.9999967922804516 1.2246428708238758e-16
882483120.7801951 -0.999996991620951 1.2246431149455803e-16 0.0024529062451928148 0.0 0.0024529062451928148 0.0 -0.999996991620951 1.2246431149455803e-16
882570642.6606652 -0.9999971773254686 1.2246433423680232e-16 0.0023759926547616706 0.0 0.0023759926547616706 0.0 -0.9999971773254686 1.2246433423680232e-16
882658164.5411353 -0.9999973504118381 1.2246435543376917e-16 0.0023019924637847316 0.0 0.0023019924637847316 0.0 -0.9999973504118381 1.2246435543376917e-16
882745686.4216055 -0.9999975118155945 1.2246437520002852e-16 0.0022307762370933596 0.0 0.0022307762370933596 0.0 -0.9999975118155945 1.2246437520002852e-16
882833208.3020756 -0.9999976623971364 1.2246439364094885e-16 0.002162221141056556 0.0 0.002162221141056556 0.0 -0.9999976623971364 1.2246439364094885e-16
882920730.1825457 -0.9999978029482236 1.2246441085349276e-16 0.002096210563330694 0.0 0.002096210563330694 0.0 -0.9999978029482236 1.2246441085349276e-16
883008252.0630158 -0.9999979341978711 1.2246442692693884e-16 0.002032633757026325 0.0 0.002032633757026325 0.0 -0.9999979341978711 1.2246442692693884e-16
883095773.943486 -0.9999980568177024 1.2246444194353723e-16 0.001971385507563592 0.0 0.001971385507563592 0.0 -0.9999980568177024 1.2246444194353723e-16
883183295.823956 -0.9999981714268122 1.2246445597910517e-16 0.0019123658206189362 0.0 0.0019123658206189362 0.0 -0.9999981714268122 1.2246445597910517e-16
883270817.7044262 -0.9999982785961903 1.2246446910356877e-16 0.001855479629690856 0.0 0.001855479629690856 0.0 -0.9999982785961903 1.2246446910356877e-16
883358339.5848963 -0.9999983788527439 1.2246448138145551e-16 0.0018006365219250717 0.0 0.0018006365219250717 0.0 -0.9999983788527439 1.2246448138145551e-16
883445861.4653664 -0.9999984726829618 1.2246449287234311e-16 0.0017477504809404083 0.0 0.0017477504809404083 0.0 -0.9999984726829618 1.2246449287234311e-16
883533383.3458365 -0.9999985605362517 1.2246450363126813e-16 0.001696739645493276 0.0 0.001696739645493276 0.0 -0.9999985605362517 1.2246450363126813e-16
883620905.2263067 -0.9999986428279821 1.2246451370909857e-16 0.0016475260829055766 0.0 0.0016475260829055766 0.0 -0.9999986428279821 1.2246451370909857e-16
883708427.1067767 -0.9999987199422581 1.2246452315287368e-16 0.0016000355762595378 0.0 0.0016000355762595378 0.0 -0.9999987199422581 1.2246452315287368e-16
883795948.9872468 -0.9999987922344536 1.2246453200611427e-16 0.0015541974244367965 0.0 0.0015541974244367965 0.0 -0.9999987922344536 1.2246453200611427e-16
883883470.8677169 -0.9999988600335249 1.2246454030910585e-16 0.001509944254147519 0.0 0.001509944254147519 0.0 -0.9999988600335249 1.2246454030910585e-16
883970992.7481871 -0.9999989236441243 1.2246454809915752e-16 0.001467211843157003 0.0 0.001467211843157003 0.0 -0.9999989236441243 1.2246454809915752e-16
884058514.6286571 -0.999998983348533 1.2246455541083882e-16 0.0014259389539733455 0.0 0.0014259389539733455 0.0 -0.999998983348533 1.2246455541083882e-16
884146036.5091273 -0.9999990394084286 1.22464562276196e-16 0.001386067177314229 0.0 0.001386067177314229 0.0 -0.9999990394084286 1.22464562276196e-16
884233558.3895974 -0.9999990920665046 1.2246456872495042e-16 0.0013475407847194035 0.0 0.0013475407847194035 0.0 -0.9999990920665046 1.2246456872495042e-16
884321080.2700675 -0.999999141547952 1.2246457478468003e-16 0.0013103065897190386 0.0 0.0013103065897190386 0.0 -0.999999141547952 1.2246457478468003e-16
884408602.1505376 -0.9999991880618183 1.2246458048098579e-16 0.0012743138170102507 0.0 0.0012743138170102507 0.0 -0.9999991880618183 1.2246458048098579e-16
884496124.0310078 -0.9999992318022527 1.224645858376441e-16 0.0012395139791338396 0.0 0.0012395139791338396 0.0 -0.9999992318022527 1.224645858376441e-16
884583645.9114779 -0.9999992729496492 1.2246459087674682e-16 0.0012058607601756258 0.0 0.0012058607601756258 0.0 -0.9999992729496492 1.2246459087674682e-16
884671167.791948 -0.9999993116716953 1.224645956188298e-16 0.0011733099060528811 0.0 0.0011733099060528811 0.0 -0.9999993116716953 1.224645956188298e-16
884758689.6724181 -0.999999348124335 1.2246460008299066e-16 0.0011418191209733419 0.0 0.0011418191209733419 0.0 -0.999999348124335 1.2246460008299066e-16
884846211.5528883 -0.9999993824526544 1.2246460428699732e-16 0.001111347969685836 0.0 0.001111347969685836 0.0 -0.9999993824526544 1.2246460428699732e-16
884933733.4333583 -0.9999994147916951 1.2246460824738758e-16 0.0010818577851637496 0.0 0.0010818577851637496 0.0 -0.9999994147916951 1.2246460824738758e-16
885021255.3138285 -0.9999994452672024 1.2246461197956083e-16 0.0010533115813894875 0.0 0.0010533115813894875 0.0 -0.9999994452672024 1.2246461197956083e-16
885108777.1942986 -0.9999994739963143 1.2246461549786232e-16 0.0010256739709294882 0.0 0.0010256739709294882 0.0 -0.9999994739963143 1.2246461549786232e-16
885196299.0747687 -0.9999995010881957 1.224646188156609e-16 0.000998911087009131 0.0 0.000998911087009131 0.0 -0.9999995010881957 1.224646188156609e-16
885283820.9552388 -0.9999995266446219 1.2246462194542046e-16 0.0009729905098171289 0.0 0.0009729905098171289 0.0 -0.9999995266446219 1.2246462194542046e-16
885371342.835709 -0.9999995507605175 1.224646248987659e-16 0.0009478811967868182 0.0 0.0009478811967868182 0.0 -0.9999995507605175 1.224646248987659e-16
885458864.716179 -0.9999995735244523 1.224646276865439e-16 0.0009235534166171067 0.0 0.0009235534166171067 0.0 -0.9999995735244523 1.224646276865439e-16
885546386.5966492 -0.9999995950190996 1.2246463031887898e-16 0.0008999786868126845 0.0 0.0008999786868126845 0.0 -0.9999995950190996 1.2246463031887898e-16
885633908.4771193 -0.9999996153216579 1.224646328052253e-16 0.0008771297145366157 0.0 0.0008771297145366157 0.0 -0.9999996153216579 1.224646328052253e-16
885721430.3575895 -0.9999996345042418 1.2246463515441427e-16 0.0008549803405812332 0.0 0.0008549803405812332 0.0 -0.9999996345042418 1.2246463515441427e-16
885808952.2380595 -0.9999996526342418 1.2246463737469894e-16 0.0008335054862769434 0.0 0.0008335054862769434 0.0 -0.9999996526342418 1.2246463737469894e-16
885896474.1185297 -0.9999996697746577 1.2246463947379447e-16 0.0008126811031684806 0.0 0.0008126811031684806 0.0 -0.9999996697746577 1.2246463947379447e-16
885983995.9989998 -0.9999996859844063 1.2246464145891615e-16 0.0007924841253004776 0.0 0.0007924841253004776 0.0 -0.9999996859844063 1.2246464145891615e-16
886071517.8794699 -0.9999997013186059 1.22464643336814e-16 0.0007728924239627118 0.0 0.0007728924239627118 0.0 -0.9999997013186059 1.22464643336814e-16
886159039.7599399 -0.9999997158288404 1.2246464511380521e-16 0.0007538847647553097 0.0 0.0007538847647553097 0.0 -0.9999997158288404 1.2246464511380521e-16
886246561.6404101 -0.9999997295634027 1.2246464679580398e-16 0.0007354407668434388 0.0 0.0007354407668434388 0.0 -0.9999997295634027 1.2246464679580398e-16
886334083.5208802 -0.9999997425675209 1.2246464838834916e-16 0.0007175408642780869 0.0 0.0007175408642780869 0.0 -0.9999997425675209 1.2246464838834916e-16
886421605.4013503 -0.9999997548835676 1.2246464989662988e-16 0.000700166269267395 0.0 0.000700166269267395 0.0 -0.9999997548835676 1.2246464989662988e-16
886509127.2818204 -0.9999997665512539 1.2246465132550934e-16 0.0006832989372906308 0.0 0.0006832989372906308 0.0 -0.9999997665512539 1.2246465132550934e-16
886596649.1622906 -0.999999777607809 1.2246465267954683e-16 0.0006669215339526392 0.0 0.0006669215339526392 0.0 -0.999999777607809 1.2246465267954683e-16
886684171.0427606 -0.9999997880881477 1.2246465396301815e-16 0.0006510174034833408 0.0 0.0006510174034833408 0.0 -0.9999997880881477 1.2246465396301815e-16
886771692.9232308 -0.9999997980250247 1.224646551799346e-16 0.0006355705387920085 0.0 0.0006355705387920085 0.0 -0.9999997980250247 1.224646551799346e-16
886859214.8037009 -0.9999998074491787 1.2246465633406062e-16 0.000620565552992398 0.0 0.000620565552992398 0.0 -0.9999998074491787 1.2246465633406062e-16
886946736.684171 -0.9999998163894658 1.2246465742893001e-16 0.0006059876523184897 0.0 0.0006059876523184897 0.0 -0.9999998163894658 1.2246465742893001e-16
887034258.5646411 -0.9999998248729836 1.224646584678613e-16 0.000591822610356508 0.0 0.000591822610356508 0.0 -0.9999998248729836 1.224646584678613e-16
887121780.4451113 -0.9999998329251867 1.2246465945397178e-16 0.0005780567435227111 0.0 0.0005780567435227111 0.0 -0.9999998329251867 1.2246465945397178e-16
887209302.3255814 -0.9999998405699936 1.2246466039019062e-16 0.000564676887720352 0.0 0.000564676887720352 0.0 -0.9999998405699936 1.2246466039019062e-16
887296824.2060515 -0.9999998478298865 1.2246466127927107e-16 0.0005516703761136595 0.0 0.0005516703761136595 0.0 -0.9999998478298865 1.2246466127927107e-16
887384346.0865216 -0.9999998547260044 1.2246466212380194e-16 0.000539025017959905 0.0 0.000539025017959905 0.0 -0.9999998547260044 1.2246466212380194e-16
887471867.9669918 -0.9999998612782294 1.224646629262181e-16 0.0005267290784439376 0.0 0.0005267290784439376 0.0 -0.9999998612782294 1.224646629262181e-16
887559389.8474618 -0.9999998675052664 1.2246466368881018e-16 0.0005147712594631963 0.0 0.0005147712594631963 0.0 -0.9999998675052664 1.2246466368881018e-16
887646911.727932 -0.9999998734247194 1.224646644137341e-16 0.0005031406813134601 0.0 0.0005031406813134601 0.0 -0.9999998734247194 1.224646644137341e-16
887734433.6084021 -0.99999987905316 1.2246466510301926e-16 0.0004918268652293582 0.0 0.0004918268652293582 0.0 -0.99999987905316 1.2246466510301926e-16
887821955.4888722 -0.9999998844061934 1.224646657585768e-16 0.0004808197167351777 0.0 0.0004808197167351777 0.0 -0.9999998844061934 1.224646657585768e-16
887909477.3693423 -0.9999998894985184 1.2246466638220675e-16 0.00047010950976492913 0.0 0.00047010950976492913 0.0 -0.9999998894985184 1.2246466638220675e-16
887996999.2498125 -0.9999998943439845 1.224646669756052e-16 0.0004596868715125204 0.0 0.0004596868715125204 0.0 -0.9999998943439845 1.224646669756052e-16
888084521.1302825 -0.9999998989556448 1.224646675403707e-16 0.00044954276797478943 0.0 0.00044954276797478943 0.0 -0.9999998989556448 1.224646675403707e-16
888172043.0107527 -0.9999999033458047 1.2246466807801024e-16 0.000439668490152761 0.0 0.000439668490152761 0.0 -0.9999999033458047 1.2246466807801024e-16
888259564.8912228 -0.9999999075260686 1.224646685899449e-16 0.0004300556408782112 0.0 0.0004300556408782112 0.0 -0.9999999075260686 1.224646685899449e-16
888347086.771693 -0.9999999115073824 1.2246466907751525e-16 0.00042069612223396766 0.0 0.00042069612223396766 0.0 -0.9999999115073824 1.2246466907751525e-16
888434608.652163 -0.9999999153000743 1.2246466954198602e-16 0.000411582123538941 0.0 0.000411582123538941 0.0 -0.9999999153000743 1.2246466954198602e-16
888522130.5326332 -0.9999999189138913 1.2246466998455097e-16 0.0004027061098695317 0.0 0.0004027061098695317 0.0 -0.9999999189138913 1.2246466998455097e-16
888609652.4131033 -0.9999999223580356 1.22464670406337e-16 0.00039406081109149985 0.0 0.00039406081109149985 0.0 -0.9999999223580356 1.22464670406337e-16
888697174.2935734 -0.9999999256411966 1.2246467080840826e-16 0.00038563921137688476 0.0 0.00038563921137688476 0.0 -0.9999999256411966 1.2246467080840826e-16
888784696.1740435 -0.9999999287715818 1.2246467119176988e-16 0.0003774345391826306 0.0 0.0003774345391826306 0.0 -0.9999999287715818 1.2246467119176988e-16
888872218.0545137 -0.9999999317569457 1.224646715573715e-16 0.00036944025766850937 0.0 0.00036944025766850937 0.0 -0.9999999317569457 1.224646715573715e-16
888959739.9349837 -0.9999999346046166 1.2246467190611062e-16 0.00036165005553300385 0.0 0.00036165005553300385 0.0 -0.9999999346046166 1.2246467190611062e-16
889047261.8154539 -0.9999999373215216 1.2246467223883554e-16 0.0003540578382471483 0.0 0.0003540578382471483 0.0 -0.9999999373215216 1.2246467223883554e-16
889134783.695924 -0.9999999399142109 1.2246467255634838e-16 0.00034665771966742835 0.0 0.00034665771966742835 0.0 -0.9999999399142109 1.2246467255634838e-16
889222305.5763942 -0.999999942388879 1.2246467285940783e-16 0.000339444014009479 0.0 0.000339444014009479 0.0 -0.999999942388879 1.2246467285940783e-16
889309827.4568642 -0.9999999447513862 1.2246467314873152e-16 0.0003324112281656871 0.0 0.0003324112281656871 0.0 -0.9999999447513862 1.2246467314873152e-16
889397349.3373344 -0.9999999470072775 1.2246467342499852e-16 0.0003255540543502915 0.0 0.0003255540543502915 0.0 -0.9999999470072775 1.2246467342499852e-16
889484871.2178046 -0.9999999491618011 1.2246467368885156e-16 0.000318867363056868 0.0 0.000318867363056868 0.0 -0.9999999491618011 1.2246467368885156e-16
889572393.0982746 -0.9999999512199256 1.2246467394089913e-16 0.0003123461963132931 0.0 0.0003123461963132931 0.0 -0.9999999512199256 1.2246467394089913e-16
889659914.9787447 -0.9999999531863559 1.2246467418171739e-16 0.0003059857612205865 0.0 0.0003059857612205865 0.0 -0.9999999531863559 1.2246467418171739e-16
889747436.8592149 -0.999999955065548 1.2246467441185203e-16 0.00029978142376243524 0.0 0.00029978142376243524 0.0 -0.999999955065548 1.2246467441185203e-16
889834958.7396849 -0.9999999568617236 1.2246467463182012e-16 0.0002937287028727972 0.0 0.0002937287028727972 0.0 -0.9999999568617236 1.2246467463182012e-16
889922480.6201551 -0.9999999585788832 1.224646748421115e-16 0.00028782326474985364 0.0 0.00028782326474985364 0.0 -0.9999999585788832 1.224646748421115e-16
890010002.5006253 -0.9999999602208186 1.224646750431906e-16 0.0002820609174051043 0.0 0.0002820609174051043 0.0 -0.9999999602208186 1.224646750431906e-16
890097524.3810954 -0.9999999617911244 1.224646752354976e-16 0.0002764376054367176 0.0 0.0002764376054367176 0.0 -0.9999999617911244 1.224646752354976e-16
890185046.2615654 -0.9999999632932093 1.2246467541944993e-16 0.0002709494050171743 0.0 0.0002709494050171743 0.0 -0.9999999632932093 1.2246467541944993e-16
890272568.1420355 -0.9999999647303063 1.2246467559544357e-16 0.0002655925190853773 0.0 0.0002655925190853773 0.0 -0.9999999647303063 1.2246467559544357e-16
890360090.0225056 -0.9999999661054825 1.2246467576385408e-16 0.00026036327273416425 0.0 0.00026036327273416425 0.0 -0.9999999661054825 1.2246467576385408e-16
890447611.9029757 -0.9999999674216484 1.2246467592503791e-16 0.000255258108784479 0.0 0.000255258108784479 0.0 -0.9999999674216484 1.2246467592503791e-16
890535133.7834458 -0.9999999686815663 1.2246467607933336e-16 0.00025027358353773004 0.0 0.00025027358353773004 0.0 -0.9999999686815663 1.2246467607933336e-16
890622655.663916 -0.9999999698878581 1.224646762270615e-16 0.0002454063626986647 0.0 0.0002454063626986647 0.0 -0.9999999698878581 1.224646762270615e-16
890710177.544386 -0.9999999710430141 1.224646763685273e-16 0.00024065321746110762 0.0 0.00024065321746110762 0.0 -0.9999999710430141 1.224646763685273e-16
890797699.4248562 -0.9999999721493987 1.2246467650402035e-16 0.00023601102074932823 0.0 0.00023601102074932823 0.0 -0.9999999721493987 1.2246467650402035e-16
890885221.3053263 -0.9999999732092583 1.224646766338157e-16 0.00023147674360844933 0.0 0.00023147674360844933 0.0 -0.9999999732092583 1.224646766338157e-16
890972743.1857965 -0.999999974224727 1.2246467675817477e-16 0.0002270474517371593 0.0 0.0002270474517371593 0.0 -0.999999974224727 1.2246467675817477e-16
891060265.0662665 -0.9999999751978332 1.2246467687734592e-16 0.0002227203021566729 0.0 0.0002227203021566729 0.0 -0.9999999751978332 1.2246467687734592e-16
891147786.9467367 -0.9999999761305046 1.224646769915652e-16 0.00021849254001005908 0.0 0.00021849254001005908 0.0 -0.9999999761305046 1.224646769915652e-16
891235308.8272069 -0.9999999770245743 1.2246467710105716e-16 0.00021436149548627922 0.0 0.00021436149548627922 0.0 -0.9999999770245743 1.2246467710105716e-16
891322830.7076769 -0.9999999778817851 1.2246467720603522e-16 0.00021032458086360235 0.0 0.00021032458086360235 0.0 -0.9999999778817851 1.2246467720603522e-16
891410352.588147 -0.9999999787037945 1.2246467730670232e-16 0.0002063792876672529 0.0 0.0002063792876672529 0.0 -0.9999999787037945 1.2246467730670232e-16
891497874.4686172 -0.9999999794921798 1.2246467740325168e-16 0.00020252318393656704 0.0 0.00020252318393656704 0.0 -0.9999999794921798 1.2246467740325168e-16
891585396.3490872 -0.9999999802484412 1.2246467749586698e-16 0.00019875391159686519 0.0 0.00019875391159686519 0.0 -0.9999999802484412 1.2246467749586698e-16
891672918.2295574 -0.9999999809740066 1.224646775847231e-16 0.00019506918393167385 0.0 0.00019506918393167385 0.0 -0.9999999809740066 1.224646775847231e-16
891760440.1100276 -0.9999999816702353 1.2246467766998655e-16 0.00019146678315116797 0.0 0.00019146678315116797 0.0 -0.9999999816702353 1.2246467766998655e-16
891847961.9904977 -0.9999999823384214 1.2246467775181573e-16 0.00018794455805264942 0.0 0.00018794455805264942 0.0 -0.9999999823384214 1.2246467775181573e-16
891935483.8709677 -0.9999999829797971 1.2246467783036163e-16 0.00018450042176935562 0.0 0.00018450042176935562 0.0 -0.9999999829797971 1.2246467783036163e-16
892023005.7514379 -0.9999999835955359 1.2246467790576788e-16 0.0001811323496038501 0.0 0.0001811323496038501 0.0 -0.9999999835955359 1.2246467790576788e-16
892110527.631908 -0.9999999841867557 1.2246467797817143e-16 0.00017783837694257556 0.0 0.00017783837694257556 0.0 -0.9999999841867557 1.2246467797817143e-16
892198049.5123781 -0.9999999847545219 1.2246467804770272e-16 0.000174616597248138 0.0 0.000174616597248138 0.0 -0.9999999847545219 1.2246467804770272e-16
892285571.3928483 -0.9999999852998493 1.2246467811448608e-16 0.0001714651601261667 0.0 0.0001714651601261667 0.0 -0.9999999852998493 1.2246467811448608e-16
892373093.2733184 -0.9999999858237055 1.2246467817863995e-16 0.0001683822694637487 0.0 0.0001683822694637487 0.0 -0.9999999858237055 1.2246467817863995e-16
892460615.1537884 -0.9999999863270129 1.2246467824027735e-16 0.00016536618163646944 0.0 0.00016536618163646944 0.0 -0.9999999863270129 1.2246467824027735e-16
892548137.0342586 -0.9999999868106507 1.2246467829950589e-16 0.0001624152037812443 0.0 0.0001624152037812443 0.0 -0.9999999868106507 1.2246467829950589e-16
892635658.9147286 -0.9999999872754577 1.2246467835642831e-16 0.00015952769213242244 0.0 0.00015952769213242244 0.0 -0.9999999872754577 1.2246467835642831e-16
892723180.7951988 -0.9999999877222336 1.224646784111426e-16 0.0001567020504184145 0.0 0.0001567020504184145 0.0 -0.9999999877222336 1.224646784111426e-16
892810702.6756688 -0.9999999881517417 1.2246467846374217e-16 0.00015393672831662993 0.0 0.00015393672831662993 0.0 -0.9999999881517417 1.2246467846374217e-16
892898224.556139 -0.9999999885647102 1.224646785143162e-16 0.00015123021996420278 0.0 0.00015123021996420278 0.0 -0.9999999885647102 1.224646785143162e-16
892985746.4366091 -0.9999999889618338 1.2246467856294983e-16 0.00014858106252243445 0.0 0.00014858106252243445 0.0 -0.9999999889618338 1.2246467856294983e-16
893073268.3170792 -0.999999989343776 1.2246467860972425e-16 0.00014598783479275436 0.0 0.00014598783479275436 0.0 -0.999999989343776 1.2246467860972425e-16
893160790.1975493 -0.9999999897111698 1.22464678654717e-16 0.00014344915588213297 0.0 0.00014344915588213297 0.0 -0.9999999897111698 1.22464678654717e-16
893248312.0780195 -0.9999999900646199 1.2246467869800218e-16 0.00014096368391610338 0.0 0.00014096368391610338 0.0 -0.9999999900646199 1.2246467869800218e-16
893335833.9584895 -0.9999999904047037 1.2246467873965043e-16 0.00013853011479742432 0.0 0.00013853011479742432 0.0 -0.9999999904047037 1.2246467873965043e-16
893423355.8389597 -0.9999999907319725 1.224646787797293e-16 0.00013614718100863864 0.0 0.00013614718100863864 0.0 -0.9999999907319725 1.224646787797293e-16
893510877.7194299 -0.9999999910469535 1.2246467881830334e-16 0.0001338136504568497 0.0 0.0001338136504568497 0.0 -0.9999999910469535 1.2246467881830334e-16
893598399.5999 -0.9999999913501498 1.2246467885543419e-16 0.00013152832535904491 0.0 0.00013152832535904491 0.0 -0.9999999913501498 1.2246467885543419e-16
893685921.48037 -0.9999999916420426 1.2246467889118073e-16 0.0001292900411663923 0.0 0.0001292900411663923 0.0 -0.9999999916420426 1.2246467889118073e-16
893773443.3608402 -0.9999999919230916 1.2246467892559932e-16 0.0001270976655260281 0.0 0.0001270976655260281 0.0 -0.9999999919230916 1.2246467892559932e-16
893860965.2413104 -0.9999999921937366 1.2246467895874378e-16 0.00012495009727891726 0.0 0.00012495009727891726 0.0 -0.9999999921937366 1.2246467895874378e-16
893948487.1217804 -0.9999999924543975 1.2246467899066553e-16 0.00012284626549237214 0.0 0.00012284626549237214 0.0 -0.9999999924543975 1.2246467899066553e-16
894036009.0022506 -0.9999999927054763 1.2246467902141382e-16 0.00012078512852591002 0.0 0.00012078512852591002 0.0 -0.9999999927054763 1.2246467902141382e-16
894123530.8827207 -0.9999999929473574 1.224646790510357e-16 0.00011876567312923594 0.0 0.00011876567312923594 0.0 -0.9999999929473574 1.224646790510357e-16
894211052.7631907 -0.9999999931804083 1.2246467907957622e-16 0.00011678691357107455 0.0 0.00011678691357107455 0.0 -0.9999999931804083 1.2246467907957622e-16
894298574.6436609 -0.9999999934049809 1.2246467910707842e-16 0.00011484789079770655 0.0 0.00011484789079770655 0.0 -0.9999999934049809 1.2246467910707842e-16
894386096.5241311 -0.9999999936214117 1.2246467913358353e-16 0.00011294767162013824 0.0 0.00011294767162013824 0.0 -0.9999999936214117 1.2246467913358353e-16
894473618.4046011 -0.9999999938300227 1.2246467915913102e-16 0.00011108534792878342 0.0 0.00011108534792878342 0.0 -0.9999999938300227 1.2246467915913102e-16
894561140.2850713 -0.9999999940311223 1.2246467918375861e-16 0.00010926003593462295 0.0 0.00010926003593462295 0.0 -0.9999999940311223 1.2246467918375861e-16
894648662.1655414 -0.9999999942250054 1.2246467920750246e-16 0.00010747087543593608 0.0 0.00010747087543593608 0.0 -0.9999999942250054 1.2246467920750246e-16
894736184.0460116 -0.9999999944119549 1.2246467923039715e-16 0.00010571702910955426 0.0 0.00010571702910955426 0.0 -0.9999999944119549 1.2246467923039715e-16
894823705.9264816 -0.9999999945922411 1.2246467925247587e-16 0.00010399768182582676 0.0 0.00010399768182582676 0.0 -0.9999999945922411 1.2246467925247587e-16
894911227.8069518 -0.9999999947661232 1.2246467927377028e-16 0.00010231203998635119 0.0 0.00010231203998635119 0.0 -0.9999999947661232 1.2246467927377028e-16
894998749.6874219 -0.9999999949338495 1.2246467929431081e-16 0.0001006593308837008 0.0 0.0001006593308837008 0.0 -0.9999999949338495 1.2246467929431081e-16
895086271.567892 -0.9999999950956578 1.2246467931412663e-16 9.903880208228515e-05 0.0 9.903880208228515e-05 0.0 -0.9999999950956578 1.2246467931412663e-16
895173793.4483621 -0.999999995251776 1.2246467933324559e-16 9.744972081963104e-05 0.0 9.744972081963104e-05 0.0 -0.999999995251776 1.2246467933324559e-16
895261315.3288323 -0.9999999954024222 1.2246467935169443e-16 9.589137342729644e-05 0.0 9.589137342729644e-05 0.0 -0.9999999954024222 1.2246467935169443e-16
895348837.2093023 -0.9999999955478059 1.224646793694988e-16 9.436306477074983e-05 0.0 9.436306477074983e-05 0.0 -0.9999999955478059 1.224646793694988e-16
895436359.0897725 -0.9999999956881278 1.2246467938668327e-16 9.286411770748923e-05 0.0 9.286411770748923e-05 0.0 -0.9999999956881278 1.2246467938668327e-16
895523880.9702426 -0.99999999582358 1.2246467940327139e-16 9.139387256279701e-05 0.0 9.139387256279701e-05 0.0 -0.99999999582358 1.2246467940327139e-16
895611402.8507128 -0.999999995954347 1.224646794192857e-16 8.99516866224469e-05 0.0 8.99516866224469e-05 0.0 -0.999999995954347 1.224646794192857e-16
895698924.7311828 -0.9999999960806056 1.2246467943474795e-16 8.853693364180802e-05 0.0 8.853693364180802e-05 0.0 -0.9999999960806056 1.2246467943474795e-16
895786446.611653 -0.9999999962025256 1.2246467944967882e-16 8.714900337071529e-05 0.0 8.714900337071529e-05 0.0 -0.9999999962025256 1.2246467944967882e-16
895873968.4921231 -0.9999999963202695 1.224646794640983e-16 8.578730109360872e-05 0.0 8.578730109360872e-05 0.0 -0.9999999963202695 1.224646794640983e-16
895961490.3725932 -0.9999999964339934 1.2246467947802547e-16 8.44512471843299e-05 0.0 8.44512471843299e-05 0.0 -0.9999999964339934 1.2246467947802547e-16
896049012.2530633 -0.9999999965438472 1.2246467949147868e-16 8.31402766751301e-05 0.0 8.31402766751301e-05 0.0 -0.9999999965438472 1.2246467949147868e-16
896136534.1335335 -0.9999999966499745 1.224646795044755e-16 8.185383883933707e-05 0.0 8.185383883933707e-05 0.0 -0.9999999966499745 1.224646795044755e-16
896224056.0140035 -0.9999999967525134 1.2246467951703292e-16 8.059139678725214e-05 0.0 8.059139678725214e-05 0.0 -0.9999999967525134 1.2246467951703292e-16
896311577.8944737 -0.9999999968515961 1.2246467952916705e-16 7.935242707476159e-05 0.0 7.935242707476159e-05 0.0 -0.9999999968515961 1.2246467952916705e-16
896399099.7749438 -0.99999999694735 1.2246467954089352e-16 7.813641932428544e-05 0.0 7.813641932428544e-05 0.0 -0.99999999694735 1.2246467954089352e-16
896486621.655414 -0.999999997039897 1.2246467955222726e-16 7.694287585757052e-05 0.0 7.694287585757052e-05 0.0 -0.999999997039897 1.2246467955222726e-16
896574143.535884 -0.9999999971293542 1.224646795631826e-16 7.577131133998169e-05 0.0 7.577131133998169e-05 0.0 -0.9999999971293542 1.224646795631826e-16
896661665.4163542 -0.9999999972158343 1.2246467957377337e-16 7.462125243584153e-05 0.0 7.462125243584153e-05 0.0 -0.9999999972158343 1.2246467957377337e-16
896749187.2968242 -0.9999999972994454 1.2246467958401278e-16 7.349223747448988e-05 0.0 7.349223747448988e-05 0.0 -0.9999999972994454 1.2246467958401278e-16
896836709.1772943 -0.9999999973802915 1.2246467959391355e-16 7.238381612665046e-05 0.0 7.238381612665046e-05 0.0 -0.9999999973802915 1.2246467959391355e-16
896924231.0577644 -0.9999999974584723 1.2246467960348796e-16 7.129554909078762e-05 0.0 7.129554909078762e-05 0.0 -0.9999999974584723 1.2246467960348796e-16
897011752.9382346 -0.9999999975340836 1.2246467961274766e-16 7.022700778911056e-05 0.0 7.022700778911056e-05 0.0 -0.9999999975340836 1.2246467961274766e-16
897099274.8187046 -0.9999999976072178 1.2246467962170401e-16 6.91777740728744e-05 0.0 6.91777740728744e-05 0.0 -0.9999999976072178 1.2246467962170401e-16
897186796.6991748 -0.9999999976779632 1.2246467963036783e-16 6.814743993668906e-05 0.0 6.814743993668906e-05 0.0 -0.9999999976779632 1.2246467963036783e-16
897274318.5796449 -0.9999999977464051 1.2246467963874955e-16 6.713560724153643e-05 0.0 6.713560724153643e-05 0.0 -0.9999999977464051 1.2246467963874955e-16
897361840.4601151 -0.9999999978126254 1.2246467964685919e-16 6.614188744617685e-05 0.0 6.614188744617685e-05 0.0 -0.9999999978126254 1.2246467964685919e-16
897449362.3405851 -0.9999999978767026 1.2246467965470638e-16 6.516590134669153e-05 0.0 6.516590134669153e-05 0.0 -0.9999999978767026 1.2246467965470638e-16
897536884.2210553 -0.9999999979387126 1.2246467966230042e-16 6.420727882387526e-05 0.0 6.420727882387526e-05 0.0 -0.9999999979387126 1.2246467966230042e-16
897624406.1015254 -0.9999999979987282 1.2246467966965022e-16 6.326565859823642e-05 0.0 6.326565859823642e-05 0.0 -0.9999999979987282 1.2246467966965022e-16
897711927.9819955 -0.9999999980568193 1.224646796767643e-16 6.234068799232328e-05 0.0 6.234068799232328e-05 0.0 -0.9999999980568193 1.224646796767643e-16
897799449.8624656 -0.9999999981130533 1.22464679683651e-16 6.143202270016043e-05 0.0 6.143202270016043e-05 0.0 -0.9999999981130533 1.22464679683651e-16
897886971.7429358 -0.999999998167495 1.2246467969031817e-16 6.053932656355798e-05 0.0 6.053932656355798e-05 0.0 -0.999999998167495 1.2246467969031817e-16
897974493.6234058 -0.9999999982202067 1.224646796967735e-16 5.9662271355055016e-05 0.0 5.9662271355055016e-05 0.0 -0.9999999982202067 1.224646796967735e-16
898062015.503876 -0.9999999982712484 1.224646797030243e-16 5.880053656729248e-05 0.0 5.880053656729248e-05 0.0 -0.9999999982712484 1.224646797030243e-16
898149537.3843461 -0.999999998320678 1.2246467970907768e-16 5.795380920860902e-05 0.0 5.795380920860902e-05 0.0 -0.999999998320678 1.2246467970907768e-16
898237059.2648163 -0.9999999983685509 1.2246467971494042e-16 5.7121783604641316e-05 0.0 5.7121783604641316e-05 0.0 -0.9999999983685509 1.2246467971494042e-16
898324581.1452863 -0.9999999984149207 1.2246467972061909e-16 5.63041612057523e-05 0.0 5.63041612057523e-05 0.0 -0.9999999984149207 1.2246467972061909e-16
898412103.0257565 -0.9999999984598389 1.2246467972611998e-16 5.5500650400085454e-05 0.0 5.5500650400085454e-05 0.0 -0.9999999984598389 1.2246467972611998e-16
898499624.9062266 -0.9999999985033551 1.2246467973144918e-16 5.471096633208215e-05 0.0 5.471096633208215e-05 0.0 -0.9999999985033551 1.2246467973144918e-16
898587146.7866967 -0.999999998545517 1.2246467973661253e-16 5.3934830726261905e-05 0.0 5.3934830726261905e-05 0.0 -0.999999998545517 1.2246467973661253e-16
898674668.6671668 -0.9999999985863707 1.2246467974161565e-16 5.3171971716115344e-05 0.0 5.3171971716115344e-05 0.0 -0.9999999985863707 1.2246467974161565e-16
898762190.547637 -0.9999999986259605 1.2246467974646402e-16 5.242212367794859e-05 0.0 5.242212367794859e-05 0.0 -0.9999999986259605 1.2246467974646402e-16
898849712.428107 -0.999999998664329 1.224646797511628e-16 5.1685027069504106e-05 0.0 5.1685027069504106e-05 0.0 -0.999999998664329 1.224646797511628e-16
898937234.3085772 -0.9999999987015173 1.2246467975571706e-16 5.0960428273224074e-05 0.0 5.0960428273224074e-05 0.0 -0.9999999987015173 1.2246467975571706e-16
899024756.1890473 -0.9999999987375652 1.2246467976013165e-16 5.0248079444004974e-05 0.0 5.0248079444004974e-05 0.0 -0.9999999987375652 1.2246467976013165e-16
899112278.0695175 -0.9999999987725108 1.2246467976441124e-16 4.9547738361295795e-05 0.0 4.9547738361295795e-05 0.0 -0.9999999987725108 1.2246467976441124e-16
899199799.9499874 -0.9999999988063908 1.2246467976856036e-16 4.885916828540838e-05 0.0 4.885916828540838e-05 0.0 -0.9999999988063908 1.2246467976856036e-16
899287321.8304576 -0.9999999988392407 1.224646797725833e-16 4.818213781790554e-05 0.0 4.818213781790554e-05 0.0 -0.9999999988392407 1.224646797725833e-16
899374843.7109277 -0.9999999988710948 1.2246467977648432e-16 4.7516420765951734e-05 0.0 4.7516420765951734e-05 0.0 -0.9999999988710948 1.2246467977648432e-16
899462365.5913978 -0.999999998901986 1.224646797802674e-16 4.6861796010478063e-05 0.0 4.6861796010478063e-05 0.0 -0.999999998901986 1.224646797802674e-16
899549887.4718679 -0.999999998931946 1.2246467978393644e-16 4.621804737806494e-05 0.0 4.621804737806494e-05 0.0 -0.999999998931946 1.2246467978393644e-16
899637409.3523381 -0.9999999989610056 1.2246467978749519e-16 4.558496351642357e-05 0.0 4.558496351642357e-05 0.0 -0.9999999989610056 1.2246467978749519e-16
899724931.2328081 -0.9999999989891941 1.224646797909473e-16 4.4962337773355625e-05 0.0 4.4962337773355625e-05 0.0 -0.9999999989891941 1.224646797909473e-16
899812453.1132783 -0.9999999990165401 1.2246467979429623e-16 4.43499680790887e-05 0.0 4.43499680790887e-05 0.0 -0.9999999990165401 1.2246467979429623e-16
899899974.9937484 -0.9999999990430712 1.2246467979754535e-16 4.3747656831892634e-05 0.0 4.3747656831892634e-05 0.0 -0.9999999990430712 1.2246467979754535e-16
899987496.8742186 -0.9999999990688139 1.224646798006979e-16 4.315521078686592e-05 0.0 4.315521078686592e-05 0.0 -0.9999999990688139 1.224646798006979e-16
900075018.7546886 -0.9999999990937936 1.2246467980375704e-16 4.2572440947795406e-05 0.0 4.2572440947795406e-05 0.0 -0.9999999990937936 1.2246467980375704e-16
900162540.6351588 -0.9999999991180352 1.2246467980672577e-16 4.199916246199962e-05 0.0 4.199916246199962e-05 0.0 -0.9999999991180352 1.2246467980672577e-16
900250062.5156289 -0.9999999991415623 1.2246467980960703e-16 4.143519451807228e-05 0.0 4.143519451807228e-05 0.0 -0.9999999991415623 1.2246467980960703e-16
900337584.396099 -0.9999999991643981 1.224646798124036e-16 4.088036024641806e-05 0.0 4.088036024641806e-05 0.0 -0.9999999991643981 1.224646798124036e-16
900425106.2765691 -0.9999999991865646 1.224646798151182e-16 4.0334486622516205e-05 0.0 4.0334486622516205e-05 0.0 -0.9999999991865646 1.224646798151182e-16
900512628.1570393 -0.9999999992080832 1.224646798177535e-16 3.979740437282657e-05 0.0 3.979740437282657e-05 0.0 -0.9999999992080832 1.224646798177535e-16
900600150.0375093 -0.9999999992289749 1.2246467982031197e-16 3.926894788324463e-05 0.0 3.926894788324463e-05 0.0 -0.9999999992289749 1.2246467982031197e-16
900687671.9179795 -0.9999999992492592 1.224646798227961e-16 3.874895511004385e-05 0.0 3.874895511004385e-05 0.0 -0.9999999992492592 1.224646798227961e-16
900775193.7984496 -0.9999999992689557 1.224646798252082e-16 3.8237267493229735e-05 0.0 3.8237267493229735e-05 0.0 -0.9999999992689557 1.224646798252082e-16
900862715.6789198 -0.9999999992880828 1.224646798275506e-16 3.773372987222816e-05 0.0 3.773372987222816e-05 0.0 -0.9999999992880828 1.224646798275506e-16
900950237.5593898 -0.9999999993066585 1.224646798298255e-16 3.723819040384087e-05 0.0 3.723819040384087e-05 0.0 -0.9999999993066585 1.224646798298255e-16
901037759.43986 -0.9999999993247003 1.2246467983203496e-16 3.6750500482399615e-05 0.0 3.6750500482399615e-05 0.0 -0.9999999993247003 1.2246467983203496e-16
901125281.3203301 -0.9999999993422248 1.2246467983418109e-16 3.627051466206298e-05 0.0 3.627051466206298e-05 0.0 -0.9999999993422248 1.2246467983418109e-16
901212803.2008002 -0.9999999993592483 1.2246467983626587e-16 3.579809058117841e-05 0.0 3.579809058117841e-05 0.0 -0.9999999993592483 1.2246467983626587e-16
901300325.0812703 -0.9999999993757864 1.224646798382912e-16 3.533308888865882e-05 0.0 3.533308888865882e-05 0.0 -0.9999999993757864 1.224646798382912e-16
901387846.9617405 -0.9999999993918541 1.2246467984025894e-16 3.487537317231553e-05 0.0 3.487537317231553e-05 0.0 -0.9999999993918541 1.2246467984025894e-16
901475368.8422105 -0.9999999994074662 1.2246467984217087e-16 3.442480988908389e-05 0.0 3.442480988908389e-05 0.0 -0.9999999994074662 1.2246467984217087e-16
901562890.7226807 -0.9999999994226366 1.224646798440287e-16 3.3981268297087786e-05 0.0 3.3981268297087786e-05 0.0 -0.9999999994226366 1.224646798440287e-16
901650412.6031508 -0.9999999994373792 1.2246467984583414e-16 3.354462038949675e-05 0.0 3.354462038949675e-05 0.0 -0.9999999994373792 1.2246467984583414e-16
901737934.4836209 -0.9999999994517069 1.2246467984758879e-16 3.3114740830118796e-05 0.0 3.3114740830118796e-05 0.0 -0.9999999994517069 1.2246467984758879e-16
901825456.364091 -0.9999999994656327 1.224646798492942e-16 3.2691506890671516e-05 0.0 3.2691506890671516e-05 0.0 -0.9999999994656327 1.224646798492942e-16
901912978.2445612 -0.9999999994791686 1.2246467985095187e-16 3.227479838970055e-05 0.0 3.227479838970055e-05 0.0 -0.9999999994791686 1.2246467985095187e-16
902000500.1250314 -0.9999999994923269 1.224646798525633e-16 3.186449763308079e-05 0.0 3.186449763308079e-05 0.0 -0.9999999994923269 1.224646798525633e-16
902088022.0055014 -0.9999999995051188 1.2246467985412985e-16 3.1460489356065124e-05 0.0 3.1460489356065124e-05 0.0 -0.9999999995051188 1.2246467985412985e-16
902175543.8859715 -0.9999999995175556 1.2246467985565292e-16 3.1062660666831906e-05 0.0 3.1062660666831906e-05 0.0 -0.9999999995175556 1.2246467985565292e-16
902263065.7664417 -0.9999999995296479 1.224646798571338e-16 3.067090099149579e-05 0.0 3.067090099149579e-05 0.0 -0.9999999995296479 1.224646798571338e-16
902350587.6469117 -0.9999999995414063 1.224646798585738e-16 3.028510202052747e-05 0.0 3.028510202052747e-05 0.0 -0.9999999995414063 1.224646798585738e-16
902438109.5273819 -0.9999999995528407 1.224646798599741e-16 2.990515765655181e-05 0.0 2.990515765655181e-05 0.0 -0.9999999995528407 1.224646798599741e-16
902525631.407852 -0.999999999563961 1.2246467986133595e-16 2.953096396348802e-05 0.0 2.953096396348802e-05 0.0 -0.999999999563961 1.2246467986133595e-16
902613153.2883221 -0.9999999995747766 1.2246467986266047e-16 2.9162419116984905e-05 0.0 2.9162419116984905e-05 0.0 -0.9999999995747766 1.2246467986266047e-16
902700675.1687922 -0.9999999995852966 1.224646798639488e-16 2.8799423356118123e-05 0.0 2.8799423356118123e-05 0.0 -0.9999999995852966 1.224646798639488e-16
902788197.0492624 -0.9999999995955298 1.22464679865202e-16 2.844187893632131e-05 0.0 2.844187893632131e-05 0.0 -0.9999999995955298 1.22464679865202e-16
902875718.9297326 -0.9999999996054846 1.2246467986642112e-16 2.8089690083504664e-05 0.0 2.8089690083504664e-05 0.0 -0.9999999996054846 1.2246467986642112e-16
902963240.8102026 -0.9999999996151695 1.2246467986760717e-16 2.77427629493356e-05 0.0 2.77427629493356e-05 0.0 -0.9999999996151695 1.2246467986760717e-16
903050762.6906728 -0.9999999996245924 1.2246467986876115e-16 2.740100556764708e-05 0.0 2.740100556764708e-05 0.0 -0.9999999996245924 1.2246467986876115e-16
903138284.5711429 -0.9999999996337611 1.22464679869884e-16 2.7064327811946127e-05 0.0 2.7064327811946127e-05 0.0 -0.9999999996337611 1.22464679869884e-16
903225806.4516128 -0.9999999996426829 1.224646798709766e-16 2.6732641353983276e-05 0.0 2.6732641353983276e-05 0.0 -0.9999999996426829 1.224646798709766e-16
903313328.332083 -0.9999999996513652 1.2246467987203988e-16 2.6405859623357914e-05 0.0 2.6405859623357914e-05 0.0 -0.9999999996513652 1.2246467987203988e-16
903400850.2125531 -0.9999999996598151 1.224646798730747e-16 2.6083897768142075e-05 0.0 2.6083897768142075e-05 0.0 -0.9999999996598151 1.224646798730747e-16
903488372.0930232 -0.9999999996680393 1.2246467987408187e-16 2.5766672616471645e-05 0.0 2.5766672616471645e-05 0.0 -0.9999999996680393 1.2246467987408187e-16
903575893.9734933 -0.9999999996760442 1.2246467987506217e-16 2.5454102639101e-05 0.0 2.5454102639101e-05 0.0 -0.9999999996760442 1.2246467987506217e-16
903663415.8539635 -0.9999999996838366 1.2246467987601647e-16 2.514610791287963e-05 0.0 2.514610791287963e-05 0.0 -0.9999999996838366 1.2246467987601647e-16
903750937.7344337 -0.9999999996914223 1.2246467987694546e-16 2.4842610085134745e-05 0.0 2.4842610085134745e-05 0.0 -0.9999999996914223 1.2246467987694546e-16
903838459.6149037 -0.9999999996988075 1.2246467987784989e-16 2.4543532338930555e-05 0.0 2.4543532338930555e-05 0.0 -0.9999999996988075 1.2246467987784989e-16
903925981.4953738 -0.9999999997059978 1.2246467987873045e-16 2.4248799359179027e-05 0.0 2.4248799359179027e-05 0.0 -0.9999999997059978 1.2246467987873045e-16
904013503.375844 -0.999999999712999 1.2246467987958784e-16 2.395833729958653e-05 0.0 2.395833729958653e-05 0.0 -0.999999999712999 1.2246467987958784e-16
904101025.256314 -0.9999999997198165 1.2246467988042273e-16 2.3672073750407226e-05 0.0 2.3672073750407226e-05 0.0 -0.9999999997198165 1.2246467988042273e-16
904188547.1367842 -0.9999999997264554 1.2246467988123578e-16 2.3389937706979037e-05 0.0 2.3389937706979037e-05 0.0 -0.9999999997264554 1.2246467988123578e-16
904276069.0172544 -0.999999999732921 1.2246467988202757e-16 2.3111859539032976e-05 0.0 2.3111859539032976e-05 0.0 -0.999999999732921 1.2246467988202757e-16
904363590.8977244 -0.999999999739218 1.2246467988279873e-16 2.283777096074085e-05 0.0 2.283777096074085e-05 0.0 -0.999999999739218 1.2246467988279873e-16
904451112.7781945 -0.9999999997453516 1.2246467988354987e-16 2.2567605001492442e-05 0.0 2.2567605001492442e-05 0.0 -0.9999999997453516 1.2246467988354987e-16
904538634.6586647 -0.999999999751326 1.2246467988428154e-16 2.23012959773765e-05 0.0 2.23012959773765e-05 0.0 -0.999999999751326 1.2246467988428154e-16
904626156.5391349 -0.999999999757146 1.2246467988499428e-16 2.2038779463350996e-05 0.0 2.2038779463350996e-05 0.0 -0.999999999757146 1.2246467988499428e-16
904713678.4196049 -0.999999999762816 1.2246467988568865e-16 2.1779992266080214e-05 0.0 2.1779992266080214e-05 0.0 -0.999999999762816 1.2246467988568865e-16
904801200.300075 -0.9999999997683399 1.2246467988636515e-16 2.1524872397423527e-05 0.0 2.1524872397423527e-05 0.0 -0.9999999997683399 1.2246467988636515e-16
904888722.1805452 -0.9999999997737221 1.2246467988702426e-16 2.1273359048560182e-05 0.0 2.1273359048560182e-05 0.0 -0.9999999997737221 1.2246467988702426e-16
904976244.0610152 -0.9999999997789664 1.224646798876665e-16 2.1025392564730325e-05 0.0 2.1025392564730325e-05 0.0 -0.9999999997789664 1.224646798876665e-16
905063765.9414854 -0.9999999997840767 1.2246467988829233e-16 2.078091442057556e-05 0.0 2.078091442057556e-05 0.0 -0.9999999997840767 1.2246467988829233e-16
905151287.8219556 -0.9999999997890568 1.2246467988890225e-16 2.053986719606896e-05 0.0 2.053986719606896e-05 0.0 -0.9999999997890568 1.2246467988890225e-16
905238809.7024256 -0.9999999997939104 1.2246467988949663e-16 2.0302194553011417e-05 0.0 2.0302194553011417e-05 0.0 -0.9999999997939104 1.2246467988949663e-16
905326331.5828958 -0.9999999997986408 1.2246467989007595e-16 2.00678412120856e-05 0.0 2.00678412120856e-05 0.0 -0.9999999997986408 1.2246467989007595e-16
905413853.4633659 -0.9999999998032516 1.224646798906406e-16 1.9836752930449912e-05 0.0 1.9836752930449912e-05 0.0 -0.9999999998032516 1.224646798906406e-16
905501375.3438361 -0.9999999998077459 1.2246467989119098e-16 1.9608876479860457e-05 0.0 1.9608876479860457e-05 0.0 -0.9999999998077459 1.2246467989119098e-16
905588897.2243061 -0.9999999998121272 1.2246467989172753e-16 1.9384159625304886e-05 0.0 1.9384159625304886e-05 0.0 -0.9999999998121272 1.2246467989172753e-16
905676419.1047761 -0.9999999998163983 1.224646798922506e-16 1.9162551104136563e-05 0.0 1.9162551104136563e-05 0.0 -0.9999999998163983 1.224646798922506e-16
905763940.9852463 -0.9999999998205624 1.2246467989276056e-16 1.8944000605696473e-05 0.0 1.8944000605696473e-05 0.0 -0.9999999998205624 1.2246467989276056e-16
905851462.8657163 -0.9999999998246224 1.2246467989325777e-16 1.872845875141014e-05 0.0 1.872845875141014e-05 0.0 -0.9999999998246224 1.2246467989325777e-16
905938984.7461865 -0.9999999998285811 1.2246467989374257e-16 1.851587707534548e-05 0.0 1.851587707534548e-05 0.0 -0.9999999998285811 1.2246467989374257e-16
906026506.6266567 -0.9999999998324414 1.224646798942153e-16 1.830620800522322e-05 0.0 1.830620800522322e-05 0.0 -0.9999999998324414 1.224646798942153e-16
906114028.5071267 -0.9999999998362058 1.2246467989467631e-16 1.8099404843865087e-05 0.0 1.8099404843865087e-05 0.0 -0.9999999998362058 1.2246467989467631e-16
906201550.3875968 -0.9999999998398769 1.224646798951259e-16 1.7895421751069192e-05 0.0 1.7895421751069192e-05 0.0 -0.9999999998398769 1.224646798951259e-16
906289072.268067 -0.9999999998434573 1.2246467989556437e-16 1.769421372590664e-05 0.0 1.769421372590664e-05 0.0 -0.9999999998434573 1.2246467989556437e-16
906376594.1485372 -0.9999999998469495 1.2246467989599203e-16 1.749573658941871e-05 0.0 1.749573658941871e-05 0.0 -0.9999999998469495 1.2246467989599203e-16
906464116.0290072 -0.9999999998503559 1.2246467989640922e-16 1.7299946967716524e-05 0.0 1.7299946967716524e-05 0.0 -0.9999999998503559 1.2246467989640922e-16
906551637.9094774 -0.9999999998536786 1.2246467989681612e-16 1.7106802275461046e-05 0.0 1.7106802275461046e-05 0.0 -0.9999999998536786 1.2246467989681612e-16
906639159.7899475 -0.99999999985692 1.2246467989721307e-16 1.691626069972581e-05 0.0 1.691626069972581e-05 0.0 -0.99999999985692 1.2246467989721307e-16
906726681.6704175 -0.9999999998600823 1.2246467989760035e-16 1.6728281184221103e-05 0.0 1.6728281184221103e-05 0.0 -0.9999999998600823 1.2246467989760035e-16
906814203.5508877 -0.9999999998631675 1.2246467989797816e-16 1.6542823413879817e-05 0.0 1.6542823413879817e-05 0.0 -0.9999999998631675 1.2246467989797816e-16
906901725.4313579 -0.9999999998661777 1.224646798983468e-16 1.6359847799791857e-05 0.0 1.6359847799791857e-05 0.0 -0.9999999998661777 1.224646798983468e-16
906989247.3118279 -0.9999999998691148 1.224646798987065e-16 1.6179315464477822e-05 0.0 1.6179315464477822e-05 0.0 -0.9999999998691148 1.224646798987065e-16
907076769.192298 -0.999999999871981 1.224646798990575e-16 1.600118822749383e-05 0.0 1.600118822749383e-05 0.0 -0.999999999871981 1.224646798990575e-16
907164291.0727682 -0.9999999998747778 1.2246467989940004e-16 1.5825428591364037e-05 0.0 1.5825428591364037e-05 0.0 -0.9999999998747778 1.2246467989940004e-16
907251812.9532384 -0.9999999998775074 1.2246467989973432e-16 1.5651999727822878e-05 0.0 1.5651999727822878e-05 0.0 -0.9999999998775074 1.2246467989973432e-16
907339334.8337084 -0.9999999998801714 1.2246467990006056e-16 1.5480865464371174e-05 0.0 1.5480865464371174e-05 0.0 -0.9999999998801714 1.2246467990006056e-16
907426856.7141786 -0.9999999998827714 1.2246467990037896e-16 1.5311990271127397e-05 0.0 1.5311990271127397e-05 0.0 -0.9999999998827714 1.2246467990037896e-16
907514378.5946487 -0.9999999998853093 1.2246467990068975e-16 1.5145339247975996e-05 0.0 1.5145339247975996e-05 0.0 -0.9999999998853093 1.2246467990068975e-16
907601900.4751188 -0.9999999998877867 1.2246467990099314e-16 1.4980878111998495e-05 0.0 1.4980878111998495e-05 0.0 -0.9999999998877867 1.2246467990099314e-16
907689422.3555889 -0.9999999998902049 1.224646799012893e-16 1.4818573185184227e-05 0.0 1.4818573185184227e-05 0.0 -0.9999999998902049 1.224646799012893e-16
907776944.2360591 -0.9999999998925657 1.2246467990157843e-16 1.46583913824148e-05 0.0 1.46583913824148e-05 0.0 -0.9999999998925657 1.2246467990157843e-16
907864466.1165291 -0.9999999998948707 1.224646799018607e-16 1.450030019971109e-05 0.0 1.450030019971109e-05 0.0 -0.9999999998948707 1.224646799018607e-16
907951987.9969993 -0.999999999897121 1.2246467990213628e-16 1.4344267702740113e-05 0.0 1.4344267702740113e-05 0.0 -0.999999999897121 1.2246467990213628e-16
908039509.8774694 -0.9999999998993182 1.2246467990240535e-16 1.419026251557617e-05 0.0 1.419026251557617e-05 0.0 -0.9999999998993182 1.2246467990240535e-16
908127031.7579396 -0.9999999999014637 1.2246467990266812e-16 1.4038253809705634e-05 0.0 1.4038253809705634e-05 0.0 -0.9999999999014637 1.2246467990266812e-16
908214553.6384096 -0.9999999999035588 1.224646799029247e-16 1.3888211293275116e-05 0.0 1.3888211293275116e-05 0.0 -0.9999999999035588 1.224646799029247e-16
908302075.5188798 -0.9999999999056047 1.2246467990317523e-16 1.374010520057154e-05 0.0 1.374010520057154e-05 0.0 -0.9999999999056047 1.2246467990317523e-16
908389597.3993499 -0.9999999999076028 1.2246467990341992e-16 1.3593906281734553e-05 0.0 1.3593906281734553e-05 0.0 -0.9999999999076028 1.2246467990341992e-16
908477119.27982 -0.9999999999095542 1.224646799036589e-16 1.3449585792689761e-05 0.0 1.3449585792689761e-05 0.0 -0.9999999999095542 1.224646799036589e-16
908564641.1602901 -0.9999999999114603 1.2246467990389233e-16 1.3307115485301087e-05 0.0 1.3307115485301087e-05 0.0 -0.9999999999114603 1.2246467990389233e-16
908652163.0407603 -0.999999999913322 1.2246467990412033e-16 1.3166467597738164e-05 0.0 1.3166467597738164e-05 0.0 -0.999999999913322 1.2246467990412033e-16
908739684.9212303 -0.9999999999151405 1.2246467990434304e-16 1.3027614845048817e-05 0.0 1.3027614845048817e-05 0.0 -0.9999999999151405 1.2246467990434304e-16
908827206.8017005 -0.9999999999169171 1.224646799045606e-16 1.2890530409935376e-05 0.0 1.2890530409935376e-05 0.0 -0.9999999999169171 1.224646799045606e-16
908914728.6821706 -0.9999999999186525 1.2246467990477312e-16 1.2755187933731627e-05 0.0 1.2755187933731627e-05 0.0 -0.9999999999186525 1.2246467990477312e-16
909002250.5626407 -0.999999999920348 1.2246467990498076e-16 1.2621561507570006e-05 0.0 1.2621561507570006e-05 0.0 -0.999999999920348 1.2246467990498076e-16
909089772.4431108 -0.9999999999220046 1.2246467990518364e-16 1.2489625663739322e-05 0.0 1.2489625663739322e-05 0.0 -0.9999999999220046 1.2246467990518364e-16
909177294.323581 -0.9999999999236231 1.2246467990538185e-16 1.2359355367227986e-05 0.0 1.2359355367227986e-05 0.0 -0.9999999999236231 1.2246467990538185e-16
909264816.2040511 -0.9999999999252046 1.2246467990557554e-16 1.2230726007445891e-05 0.0 1.2230726007445891e-05 0.0 -0.9999999999252046 1.2246467990557554e-16
909352338.0845212 -0.99999999992675 1.224646799057648e-16 1.2103713390122618e-05 0.0 1.2103713390122618e-05 0.0 -0.99999999992675 1.224646799057648e-16
909439859.9649913 -0.9999999999282602 1.2246467990594973e-16 1.1978293729378039e-05 0.0 1.1978293729378039e-05 0.0 -0.9999999999282602 1.2246467990594973e-16
909527381.8454615 -0.9999999999297361 1.2246467990613048e-16 1.1854443639960692e-05 0.0 1.1854443639960692e-05 0.0 -0.9999999999297361 1.2246467990613048e-16
909614903.7259315 -0.9999999999311784 1.224646799063071e-16 1.1732140129650243e-05 0.0 1.1732140129650243e-05 0.0 -0.9999999999311784 1.224646799063071e-16
909702425.6064016 -0.9999999999325881 1.2246467990647974e-16 1.1611360591818777e-05 0.0 1.1611360591818777e-05 0.0 -0.9999999999325881 1.2246467990647974e-16
909789947.4868717 -0.999999999933966 1.2246467990664849e-16 1.1492082798150282e-05 0.0 1.1492082798150282e-05 0.0 -0.999999999933966 1.2246467990664849e-16
909877469.3673419 -0.9999999999353127 1.224646799068134e-16 1.137428489151278e-05 0.0 1.137428489151278e-05 0.0 -0.9999999999353127 1.224646799068134e-16
909964991.2478119 -0.9999999999366294 1.2246467990697466e-16 1.1257945378978164e-05 0.0 1.1257945378978164e-05 0.0 -0.9999999999366294 1.2246467990697466e-16
910052513.1282821 -0.9999999999379162 1.2246467990713225e-16 1.1143043124989175e-05 0.0 1.1143043124989175e-05 0.0 -0.9999999999379162 1.2246467990713225e-16
910140035.0087522 -0.9999999999391744 1.2246467990728633e-16 1.1029557344669484e-05 0.0 1.1029557344669484e-05 0.0 -0.9999999999391744 1.2246467990728633e-16
910227556.8892223 -0.9999999999404044 1.2246467990743698e-16 1.0917467597271373e-05 0.0 1.0917467597271373e-05 0.0 -0.9999999999404044 1.2246467990743698e-16
910315078.7696924 -0.999999999941607 1.2246467990758425e-16 1.0806753779760028e-05 0.0 1.0806753779760028e-05 0.0 -0.999999999941607 1.2246467990758425e-16
910402600.6501626 -0.9999999999427829 1.2246467990772824e-16 1.0697396120531848e-05 0.0 1.0697396120531848e-05 0.0 -0.9999999999427829 1.2246467990772824e-16
910490122.5306326 -0.9999999999439325 1.2246467990786903e-16 1.0589375173261249e-05 0.0 1.0589375173261249e-05 0.0 -0.9999999999439325 1.2246467990786903e-16
910577644.4111028 -0.9999999999450567 1.224646799080067e-16 1.0482671810874713e-05 0.0 1.0482671810874713e-05 0.0 -0.9999999999450567 1.224646799080067e-16
910665166.2915729 -0.9999999999461562 1.2246467990814136e-16 1.0377267219650007e-05 0.0 1.0377267219650007e-05 0.0 -0.9999999999461562 1.2246467990814136e-16
910752688.172043 -0.9999999999472312 1.22464679908273e-16 1.0273142893435231e-05 0.0 1.0273142893435231e-05 0.0 -0.9999999999472312 1.22464679908273e-16
910840210.0525131 -0.9999999999482827 1.2246467990840178e-16 1.0170280627986861e-05 0.0 1.0170280627986861e-05 0.0 -0.9999999999482827 1.2246467990840178e-16
910927731.9329833 -0.999999999949311 1.224646799085277e-16 1.0068662515423955e-05 0.0 1.0068662515423955e-05 0.0 -0.999999999949311 1.224646799085277e-16
911015253.8134534 -0.9999999999503167 1.2246467990865089e-16 9.968270938795749e-06 0.0 9.968270938795749e-06 0.0 -0.9999999999503167 1.2246467990865089e-16
911102775.6939235 -0.9999999999513005 1.2246467990877136e-16 9.869088566759234e-06 0.0 9.869088566759234e-06 0.0 -0.9999999999513005 1.2246467990877136e-16
911190297.5743936 -0.9999999999522627 1.224646799088892e-16 9.771098348364924e-06 0.0 9.771098348364924e-06 0.0 -0.9999999999522627 1.224646799088892e-16
911277819.4548638 -0.9999999999532041 1.2246467990900447e-16 9.674283507949653e-06 0.0 9.674283507949653e-06 0.0 -0.9999999999532041 1.2246467990900447e-16
911365341.3353338 -0.9999999999541249 1.2246467990911725e-16 9.578627540131398e-06 0.0 9.578627540131398e-06 0.0 -0.9999999999541249 1.2246467990911725e-16
911452863.215804 -0.9999999999550258 1.2246467990922757e-16 9.484114204905601e-06 0.0 9.484114204905601e-06 0.0 -0.9999999999550258 1.2246467990922757e-16
911540385.0962741 -0.999999999955907 1.224646799093355e-16 9.390727522841399e-06 0.0 9.390727522841399e-06 0.0 -0.999999999955907 1.224646799093355e-16
911627906.9767442 -0.9999999999567694 1.224646799094411e-16 9.298451770372993e-06 0.0 9.298451770372993e-06 0.0 -0.9999999999567694 1.224646799094411e-16
911715428.8572143 -0.999999999957613 1.2246467990954442e-16 9.207271475186174e-06 0.0 9.207271475186174e-06 0.0 -0.999999999957613 1.2246467990954442e-16
911802950.7376845 -0.9999999999584386 1.2246467990964552e-16 9.117171411697949e-06 0.0 9.117171411697949e-06 0.0 -0.9999999999584386 1.2246467990964552e-16
911890472.6181546 -0.9999999999592464 1.2246467990974444e-16 9.028136596625748e-06 0.0 9.028136596625748e-06 0.0 -0.9999999999592464 1.2246467990974444e-16
911977994.4986247 -0.9999999999600369 1.2246467990984125e-16 8.940152284645564e-06 0.0 8.940152284645564e-06 0.0 -0.9999999999600369 1.2246467990984125e-16
912065516.3790948 -0.9999999999608103 1.2246467990993596e-16 8.853203964135713e-06 0.0 8.853203964135713e-06 0.0 -0.9999999999608103 1.2246467990993596e-16
912153038.2595649 -0.9999999999615674 1.2246467991002868e-16 8.767277353006965e-06 0.0 8.767277353006965e-06 0.0 -0.9999999999615674 1.2246467991002868e-16
912240560.1400349 -0.9999999999623083 1.2246467991011942e-16 8.682358394613224e-06 0.0 8.682358394613224e-06 0.0 -0.9999999999623083 1.2246467991011942e-16
912328082.0205051 -0.9999999999630335 1.2246467991020822e-16 8.598433253744768e-06 0.0 8.598433253744768e-06 0.0 -0.9999999999630335 1.2246467991020822e-16
912415603.9009752 -0.9999999999637432 1.2246467991029514e-16 8.515488312700165e-06 0.0 8.515488312700165e-06 0.0 -0.9999999999637432 1.2246467991029514e-16
912503125.7814453 -0.9999999999644379 1.2246467991038022e-16 8.433510167435643e-06 0.0 8.433510167435643e-06 0.0 -0.9999999999644379 1.2246467991038022e-16
912590647.6619154 -0.999999999965118 1.2246467991046352e-16 8.35248562378954e-06 0.0 8.35248562378954e-06 0.0 -0.999999999965118 1.2246467991046352e-16
912678169.5423856 -0.9999999999657837 1.2246467991054504e-16 8.272401693782656e-06 0.0 8.272401693782656e-06 0.0 -0.9999999999657837 1.2246467991054504e-16
912765691.4228557 -0.9999999999664353 1.2246467991062484e-16 8.193245591988933e-06 0.0 8.193245591988933e-06 0.0 -0.9999999999664353 1.2246467991062484e-16
912853213.3033258 -0.9999999999670733 1.2246467991070296e-16 8.115004731979151e-06 0.0 8.115004731979151e-06 0.0 -0.9999999999670733 1.2246467991070296e-16
912940735.1837959 -0.999999999967698 1.2246467991077945e-16 8.037666722832162e-06 0.0 8.037666722832162e-06 0.0 -0.999999999967698 1.2246467991077945e-16
913028257.0642661 -0.9999999999683095 1.2246467991085435e-16 7.961219365715812e-06 0.0 7.961219365715812e-06 0.0 -0.9999999999683095 1.2246467991085435e-16
913115778.9447361 -0.9999999999689082 1.2246467991092766e-16 7.885650650533456e-06 0.0 7.885650650533456e-06 0.0 -0.9999999999689082 1.2246467991092766e-16
913203300.8252063 -0.9999999999694945 1.2246467991099947e-16 7.81094875263505e-06 0.0 7.81094875263505e-06 0.0 -0.9999999999694945 1.2246467991099947e-16
913290822.7056764 -0.9999999999700686 1.2246467991106978e-16 7.737102029593184e-06 0.0 7.737102029593184e-06 0.0 -0.9999999999700686 1.2246467991106978e-16
913378344.5861465 -0.9999999999706307 1.2246467991113863e-16 7.664099018040866e-06 0.0 7.664099018040866e-06 0.0 -0.9999999999706307 1.2246467991113863e-16
913465866.4666166 -0.9999999999711813 1.2246467991120606e-16 7.591928430569437e-06 0.0 7.591928430569437e-06 0.0 -0.9999999999711813 1.2246467991120606e-16
913553388.3470868 -0.9999999999717204 1.2246467991127207e-16 7.5205791526880485e-06 0.0 7.5205791526880485e-06 0.0 -0.9999999999717204 1.2246467991127207e-16
913640910.227557 -0.9999999999722484 1.2246467991133674e-16 7.450040239839578e-06 0.0 7.450040239839578e-06 0.0 -0.9999999999722484 1.2246467991133674e-16
913728432.108027 -0.9999999999727656 1.2246467991140007e-16 7.380300914475594e-06 0.0 7.380300914475594e-06 0.0 -0.9999999999727656 1.2246467991140007e-16
913815953.9884971 -0.999999999973272 1.224646799114621e-16 7.311350563185448e-06 0.0 7.311350563185448e-06 0.0 -0.999999999973272 1.224646799114621e-16
913903475.8689673 -0.9999999999737682 1.2246467991152286e-16 7.243178733882107e-06 0.0 7.243178733882107e-06 0.0 -0.9999999999737682 1.2246467991152286e-16
913990997.7494373 -0.9999999999742542 1.2246467991158237e-16 7.175775133040202e-06 0.0 7.175775133040202e-06 0.0 -0.9999999999742542 1.2246467991158237e-16
914078519.6299075 -0.9999999999747301 1.2246467991164064e-16 7.109129622987063e-06 0.0 7.109129622987063e-06 0.0 -0.9999999999747301 1.2246467991164064e-16
914166041.5103776 -0.9999999999751964 1.2246467991169776e-16 7.043232219245605e-06 0.0 7.043232219245605e-06 0.0 -0.9999999999751964 1.2246467991169776e-16
914253563.3908477 -0.9999999999756533 1.224646799117537e-16 6.9780730879272e-06 0.0 6.9780730879272e-06 0.0 -0.9999999999756533 1.224646799117537e-16
914341085.2713178 -0.9999999999761008 1.224646799118085e-16 6.913642543173482e-06 0.0 6.913642543173482e-06 0.0 -0.9999999999761008 1.224646799118085e-16
914428607.151788 -0.9999999999765392 1.224646799118622e-16 6.849931044647605e-06 0.0 6.849931044647605e-06 0.0 -0.9999999999765392 1.224646799118622e-16
914516129.0322582 -0.9999999999769688 1.224646799119148e-16 6.786929195071292e-06 0.0 6.786929195071292e-06 0.0 -0.9999999999769688 1.224646799119148e-16
914603650.9127282 -0.9999999999773896 1.2246467991196634e-16 6.724627737809691e-06 0.0 6.724627737809691e-06 0.0 -0.9999999999773896 1.2246467991196634e-16
914691172.7931983 -0.9999999999778021 1.2246467991201686e-16 6.663017554500187e-06 0.0 6.663017554500187e-06 0.0 -0.9999999999778021 1.2246467991201686e-16
914778694.6736685 -0.9999999999782062 1.2246467991206636e-16 6.602089662726899e-06 0.0 6.602089662726899e-06 0.0 -0.9999999999782062 1.2246467991206636e-16
914866216.5541385 -0.9999999999786021 1.2246467991211485e-16 6.541835213737766e-06 0.0 6.541835213737766e-06 0.0 -0.9999999999786021 1.2246467991211485e-16
914953738.4346087 -0.9999999999789903 1.2246467991216238e-16 6.4822454902044035e-06 0.0 6.4822454902044035e-06 0.0 -0.9999999999789903 1.2246467991216238e-16
915041260.3150789 -0.9999999999793705 1.2246467991220894e-16 6.423311904024066e-06 0.0 6.423311904024066e-06 0.0 -0.9999999999793705 1.2246467991220894e-16
915128782.1955489 -0.9999999999797432 1.2246467991225458e-16 6.365025994162437e-06 0.0 6.365025994162437e-06 0.0 -0.9999999999797432 1.2246467991225458e-16
915216304.076019 -0.9999999999801085 1.2246467991229932e-16 6.307379424535679e-06 0.0 6.307379424535679e-06 0.0 -0.9999999999801085 1.2246467991229932e-16
915303825.9564892 -0.9999999999804664 1.2246467991234315e-16 6.250363981932972e-06 0.0 6.250363981932972e-06 0.0 -0.9999999999804664 1.2246467991234315e-16
915391347.8369592 -0.9999999999808173 1.2246467991238612e-16 6.19397157397626e-06 0.0 6.19397157397626e-06 0.0 -0.9999999999808173 1.2246467991238612e-16
915478869.7174294 -0.9999999999811613 1.2246467991242825e-16 6.13819422711854e-06 0.0 6.13819422711854e-06 0.0 -0.9999999999811613 1.2246467991242825e-16
915566391.5978996 -0.9999999999814984 1.2246467991246951e-16 6.083024084678359e-06 0.0 6.083024084678359e-06 0.0 -0.9999999999814984 1.2246467991246951e-16
915653913.4783697 -0.9999999999818289 1.2246467991251e-16 6.028453404911037e-06 0.0 6.028453404911037e-06 0.0 -0.9999999999818289 1.2246467991251e-16
915741435.3588398 -0.9999999999821528 1.2246467991254968e-16 5.974474559114977e-06 0.0 5.974474559114977e-06 0.0 -0.9999999999821528 1.2246467991254968e-16
915828957.2393099 -0.9999999999824704 1.2246467991258856e-16 5.921080029772221e-06 0.0 5.921080029772221e-06 0.0 -0.9999999999824704 1.2246467991258856e-16
915916479.1197801 -0.9999999999827818 1.224646799126267e-16 5.868262408723928e-06 0.0 5.868262408723928e-06 0.0 -0.9999999999827818 1.224646799126267e-16
916004001.0002501 -0.999999999983087 1.2246467991266407e-16 5.81601439537876e-06 0.0 5.81601439537876e-06 0.0 -0.999999999983087 1.2246467991266407e-16
916091522.8807203 -0.9999999999833862 1.2246467991270073e-16 5.764328794953157e-06 0.0 5.764328794953157e-06 0.0 -0.9999999999833862 1.2246467991270073e-16
916179044.7611903 -0.9999999999836796 1.2246467991273664e-16 5.7131985167450425e-06 0.0 5.7131985167450425e-06 0.0 -0.9999999999836796 1.2246467991273664e-16
916266566.6416605 -0.9999999999839674 1.224646799127719e-16 5.662616572437469e-06 0.0 5.662616572437469e-06 0.0 -0.9999999999839674 1.224646799127719e-16
916354088.5221305 -0.9999999999842495 1.2246467991280643e-16 5.612576074433811e-06 0.0 5.612576074433811e-06 0.0 -0.9999999999842495 1.2246467991280643e-16
916441610.4026006 -0.999999999984526 1.224646799128403e-16 5.563070234222934e-06 0.0 5.563070234222934e-06 0.0 -0.999999999984526 1.224646799128403e-16
916529132.2830708 -0.9999999999847974 1.2246467991287354e-16 5.514092360773505e-06 0.0 5.514092360773505e-06 0.0 -0.9999999999847974 1.2246467991287354e-16
916616654.1635408 -0.9999999999850634 1.2246467991290612e-16 5.465635858957808e-06 0.0 5.465635858957808e-06 0.0 -0.9999999999850634 1.2246467991290612e-16
916704176.044011 -0.9999999999853243 1.2246467991293807e-16 5.4176942280031065e-06 0.0 5.4176942280031065e-06 0.0 -0.9999999999853243 1.2246467991293807e-16
916791697.9244812 -0.9999999999855801 1.2246467991296938e-16 5.370261059971732e-06 0.0 5.370261059971732e-06 0.0 -0.9999999999855801 1.2246467991296938e-16
916879219.8049512 -0.999999999985831 1.2246467991300012e-16 5.3233300382676805e-06 0.0 5.3233300382676805e-06 0.0 -0.999999999985831 1.2246467991300012e-16
916966741.6854213 -0.9999999999860771 1.2246467991303027e-16 5.276894936170022e-06 0.0 5.276894936170022e-06 0.0 -0.9999999999860771 1.2246467991303027e-16
917054263.5658915 -0.9999999999863186 1.2246467991305983e-16 5.230949615393009e-06 0.0 5.230949615393009e-06 0.0 -0.9999999999863186 1.2246467991305983e-16
917141785.4463617 -0.9999999999865553 1.2246467991308882e-16 5.185488024671209e-06 0.0 5.185488024671209e-06 0.0 -0.9999999999865553 1.2246467991308882e-16
917229307.3268317 -0.9999999999867876 1.2246467991311727e-16 5.140504198369939e-06 0.0 5.140504198369939e-06 0.0 -0.9999999999867876 1.2246467991311727e-16
917316829.2073019 -0.9999999999870154 1.2246467991314517e-16 5.0959922551206424e-06 0.0 5.0959922551206424e-06 0.0 -0.9999999999870154 1.2246467991314517e-16
917404351.087772 -0.9999999999872389 1.2246467991317254e-16 5.051946396480167e-06 0.0 5.051946396480167e-06 0.0 -0.9999999999872389 1.2246467991317254e-16
917491872.968242 -0.9999999999874581 1.2246467991319938e-16 5.0083609056140414e-06 0.0 5.0083609056140414e-06 0.0 -0.9999999999874581 1.2246467991319938e-16
917579394.8487122 -0.9999999999876732 1.224646799132257e-16 4.965230146002436e-06 0.0 4.965230146002436e-06 0.0 -0.9999999999876732 1.224646799132257e-16
917666916.7291824 -0.9999999999878842 1.2246467991325157e-16 4.9225485601697495e-06 0.0 4.9225485601697495e-06 0.0 -0.9999999999878842 1.2246467991325157e-16
917754438.6096524 -0.9999999999880913 1.2246467991327691e-16 4.880310668435793e-06 0.0 4.880310668435793e-06 0.0 -0.9999999999880913 1.2246467991327691e-16
917841960.4901226 -0.9999999999882944 1.224646799133018e-16 4.838511067689187e-06 0.0 4.838511067689187e-06 0.0 -0.9999999999882944 1.224646799133018e-16
917929482.3705927 -0.9999999999884936 1.224646799133262e-16 4.797144430182601e-06 0.0 4.797144430182601e-06 0.0 -0.9999999999884936 1.224646799133262e-16
918017004.2510628 -0.9999999999886893 1.2246467991335015e-16 4.756205502348478e-06 0.0 4.756205502348478e-06 0.0 -0.9999999999886893 1.2246467991335015e-16
918104526.1315329 -0.9999999999888811 1.2246467991337365e-16 4.715689103635663e-06 0.0 4.715689103635663e-06 0.0 -0.9999999999888811 1.2246467991337365e-16
918192048.0120031 -0.9999999999890694 1.224646799133967e-16 4.675590125366692e-06 0.0 4.675590125366692e-06 0.0 -0.9999999999890694 1.224646799133967e-16
918279569.8924732 -0.9999999999892542 1.2246467991341933e-16 4.635903529614241e-06 0.0 4.635903529614241e-06 0.0 -0.9999999999892542 1.2246467991341933e-16
918367091.7729433 -0.9999999999894355 1.2246467991344154e-16 4.5966243480979e-06 0.0 4.5966243480979e-06 0.0 -0.9999999999894355 1.2246467991344154e-16
918454613.6534134 -0.9999999999896134 1.2246467991346333e-16 4.557747681099278e-06 0.0 4.557747681099278e-06 0.0 -0.9999999999896134 1.2246467991346333e-16
918542135.5338836 -0.9999999999897881 1.2246467991348473e-16 4.51926869639669e-06 0.0 4.51926869639669e-06 0.0 -0.9999999999897881 1.2246467991348473e-16
918629657.4143535 -0.9999999999899595 1.224646799135057e-16 4.481182628217575e-06 0.0 4.481182628217575e-06 0.0 -0.9999999999899595 1.224646799135057e-16
918717179.2948236 -0.9999999999901277 1.2246467991352632e-16 4.44348477620924e-06 0.0 4.44348477620924e-06 0.0 -0.9999999999901277 1.2246467991352632e-16
918804701.1752938 -0.9999999999902928 1.2246467991354653e-16 4.406170504427538e-06 0.0 4.406170504427538e-06 0.0 -0.9999999999902928 1.2246467991354653e-16
918892223.055764 -0.9999999999904549 1.2246467991356638e-16 4.369235240342715e-06 0.0 4.369235240342715e-06 0.0 -0.9999999999904549 1.2246467991356638e-16
918979744.936234 -0.999999999990614 1.2246467991358585e-16 4.3326744738622745e-06 0.0 4.3326744738622745e-06 0.0 -0.999999999990614 1.2246467991358585e-16
919067266.8167042 -0.99999999999077 1.2246467991360498e-16 4.296483756370557e-06 0.0 4.296483756370557e-06 0.0 -0.99999999999077 1.2246467991360498e-16
919154788.6971743 -0.9999999999909234 1.2246467991362377e-16 4.260658699785059e-06 0.0 4.260658699785059e-06 0.0 -0.9999999999909234 1.2246467991362377e-16
919242310.5776443 -0.9999999999910738 1.2246467991364218e-16 4.2251949756284916e-06 0.0 4.2251949756284916e-06 0.0 -0.9999999999910738 1.2246467991364218e-16
919329832.4581145 -0.9999999999912216 1.2246467991366028e-16 4.190088314116691e-06 0.0 4.190088314116691e-06 0.0 -0.9999999999912216 1.2246467991366028e-16
919417354.3385847 -0.9999999999913666 1.2246467991367803e-16 4.1553345032624855e-06 0.0 4.1553345032624855e-06 0.0 -0.9999999999913666 1.2246467991367803e-16
919504876.2190547 -0.9999999999915089 1.2246467991369545e-16 4.120929387994232e-06 0.0 4.120929387994232e-06 0.0 -0.9999999999915089 1.2246467991369545e-16
919592398.0995249 -0.9999999999916487 1.2246467991371259e-16 4.0868688692893476e-06 0.0 4.0868688692893476e-06 0.0 -0.9999999999916487 1.2246467991371259e-16
919679919.979995 -0.999999999991786 1.224646799137294e-16 4.053148903322933e-06 0.0 4.053148903322933e-06 0.0 -0.999999999991786 1.224646799137294e-16
919767441.860465 -0.9999999999919207 1.224646799137459e-16 4.019765500630499e-06 0.0 4.019765500630499e-06 0.0 -0.9999999999919207 1.224646799137459e-16
919854963.7409352 -0.999999999992053 1.224646799137621e-16 3.98671472528456e-06 0.0 3.98671472528456e-06 0.0 -0.999999999992053 1.224646799137621e-16
919942485.6214054 -0.9999999999921829 1.2246467991377801e-16 3.953992694085654e-06 0.0 3.953992694085654e-06 0.0 -0.9999999999921829 1.2246467991377801e-16
920030007.5018755 -0.9999999999923105 1.2246467991379362e-16 3.9215955757665636e-06 0.0 3.9215955757665636e-06 0.0 -0.9999999999923105 1.2246467991379362e-16
920117529.3823456 -0.9999999999924358 1.2246467991380898e-16 3.889519590209876e-06 0.0 3.889519590209876e-06 0.0 -0.9999999999924358 1.2246467991380898e-16
920205051.2628157 -0.9999999999925588 1.2246467991382404e-16 3.857761007678736e-06 0.0 3.857761007678736e-06 0.0 -0.9999999999925588 1.2246467991382404e-16
920292573.1432859 -0.9999999999926796 1.2246467991383883e-16 3.82631614806079e-06 0.0 3.82631614806079e-06 0.0 -0.9999999999926796 1.2246467991383883e-16
920380095.0237559 -0.9999999999927983 1.2246467991385337e-16 3.795181380124136e-06 0.0 3.795181380124136e-06 0.0 -0.9999999999927983 1.2246467991385337e-16
920467616.9042261 -0.9999999999929148 1.2246467991386762e-16 3.76435312078596e-06 0.0 3.76435312078596e-06 0.0 -0.9999999999929148 1.2246467991386762e-16
920555138.7846962 -0.9999999999930292 1.2246467991388165e-16 3.7338278343935346e-06 0.0 3.7338278343935346e-06 0.0 -0.9999999999930292 1.2246467991388165e-16
920642660.6651663 -0.9999999999931416 1.224646799138954e-16 3.703602032016985e-06 0.0 3.703602032016985e-06 0.0 -0.9999999999931416 1.224646799138954e-16
920730182.5456364 -0.9999999999932521 1.2246467991390894e-16 3.673672270753459e-06 0.0 3.673672270753459e-06 0.0 -0.9999999999932521 1.2246467991390894e-16
920817704.4261066 -0.9999999999933604 1.224646799139222e-16 3.6440351530435876e-06 0.0 3.6440351530435876e-06 0.0 -0.9999999999933604 1.224646799139222e-16
920905226.3065767 -0.999999999993467 1.2246467991393527e-16 3.614687325998424e-06 0.0 3.614687325998424e-06 0.0 -0.999999999993467 1.2246467991393527e-16
920992748.1870468 -0.9999999999935716 1.2246467991394806e-16 3.5856254807380093e-06 0.0 3.5856254807380093e-06 0.0 -0.9999999999935716 1.2246467991394806e-16
921080270.0675169 -0.9999999999936744 1.2246467991396066e-16 3.556846351740438e-06 0.0 3.556846351740438e-06 0.0 -0.9999999999936744 1.2246467991396066e-16
921167791.9479871 -0.9999999999937753 1.22464679913973e-16 3.5283467162022713e-06 0.0 3.5283467162022713e-06 0.0 -0.9999999999937753 1.22464679913973e-16
921255313.8284571 -0.9999999999938746 1.2246467991398516e-16 3.500123393408639e-06 0.0 3.500123393408639e-06 0.0 -0.9999999999938746 1.2246467991398516e-16
921342835.7089273 -0.9999999999939719 1.224646799139971e-16 3.4721732441141406e-06 0.0 3.4721732441141406e-06 0.0 -0.9999999999939719 1.224646799139971e-16
921430357.5893974 -0.9999999999940677 1.2246467991400883e-16 3.4444931699338398e-06 0.0 3.4444931699338398e-06 0.0 -0.9999999999940677 1.2246467991400883e-16
921517879.4698675 -0.9999999999941618 1.2246467991402034e-16 3.4170801127441745e-06 0.0 3.4170801127441745e-06 0.0 -0.9999999999941618 1.2246467991402034e-16
921605401.3503376 -0.9999999999942542 1.2246467991403166e-16 3.3899310540934325e-06 0.0 3.3899310540934325e-06 0.0 -0.9999999999942542 1.2246467991403166e-16
921692923.2308078 -0.999999999994345 1.2246467991404277e-16 3.3630430146221853e-06 0.0 3.3630430146221853e-06 0.0 -0.999999999994345 1.2246467991404277e-16
921780445.1112779 -0.9999999999944341 1.224646799140537e-16 3.336413053492858e-06 0.0 3.336413053492858e-06 0.0 -0.9999999999944341 1.224646799140537e-16
921867966.991748 -0.9999999999945218 1.2246467991406444e-16 3.3100382678286147e-06 0.0 3.3100382678286147e-06 0.0 -0.9999999999945218 1.2246467991406444e-16
921955488.8722181 -0.9999999999946079 1.2246467991407497e-16 3.283915792161295e-06 0.0 3.283915792161295e-06 0.0 -0.9999999999946079 1.2246467991407497e-16
922043010.7526883 -0.9999999999946926 1.2246467991408535e-16 3.2580427978885703e-06 0.0 3.2580427978885703e-06 0.0 -0.9999999999946926 1.2246467991408535e-16
922130532.6331583 -0.9999999999947757 1.2246467991409553e-16 3.2324164927394655e-06 0.0 3.2324164927394655e-06 0.0 -0.9999999999947757 1.2246467991409553e-16
922218054.5136285 -0.9999999999948574 1.2246467991410554e-16 3.2070341202485835e-06 0.0 3.2070341202485835e-06 0.0 -0.9999999999948574 1.2246467991410554e-16
922305576.3940986 -0.9999999999949377 1.2246467991411537e-16 3.181892959238934e-06 0.0 3.181892959238934e-06 0.0 -0.9999999999949377 1.2246467991411537e-16
922393098.2745687 -0.9999999999950167 1.2246467991412504e-16 3.1569903233132067e-06 0.0 3.1569903233132067e-06 0.0 -0.9999999999950167 1.2246467991412504e-16
922480620.1550388 -0.9999999999950943 1.2246467991413453e-16 3.1323235603525575e-06 0.0 3.1323235603525575e-06 0.0 -0.9999999999950943 1.2246467991413453e-16
922568142.035509 -0.9999999999951705 1.2246467991414387e-16 3.1078900520242762e-06 0.0 3.1078900520242762e-06 0.0 -0.9999999999951705 1.2246467991414387e-16
922655663.915979 -0.9999999999952454 1.2246467991415304e-16 3.0836872132967448e-06 0.0 3.0836872132967448e-06 0.0 -0.9999999999952454 1.2246467991415304e-16
922743185.7964491 -0.9999999999953191 1.2246467991416207e-16 3.0597124919621123e-06 0.0 3.0597124919621123e-06 0.0 -0.9999999999953191 1.2246467991416207e-16
922830707.6769192 -0.9999999999953915 1.2246467991417094e-16 3.035963368167044e-06 0.0 3.035963368167044e-06 0.0 -0.9999999999953915 1.2246467991417094e-16
922918229.5573894 -0.9999999999954626 1.2246467991417964e-16 3.0124373539504735e-06 0.0 3.0124373539504735e-06 0.0 -0.9999999999954626 1.2246467991417964e-16
923005751.4378594 -0.9999999999955325 1.224646799141882e-16 2.9891319927889963e-06 0.0 2.9891319927889963e-06 0.0 -0.9999999999955325 1.224646799141882e-16
923093273.3183296 -0.9999999999956013 1.2246467991419663e-16 2.966044859149097e-06 0.0 2.966044859149097e-06 0.0 -0.9999999999956013 1.2246467991419663e-16
923180795.1987997 -0.9999999999956688 1.224646799142049e-16 2.943173558047015e-06 0.0 2.943173558047015e-06 0.0 -0.9999999999956688 1.224646799142049e-16
923268317.0792698 -0.9999999999957353 1.2246467991421305e-16 2.920515724615148e-06 0.0 2.920515724615148e-06 0.0 -0.9999999999957353 1.2246467991421305e-16
923355838.9597399 -0.9999999999958006 1.2246467991422103e-16 2.898069023675206e-06 0.0 2.898069023675206e-06 0.0 -0.9999999999958006 1.2246467991422103e-16
923443360.8402101 -0.9999999999958648 1.224646799142289e-16 2.875831149318537e-06 0.0 2.875831149318537e-06 0.0 -0.9999999999958648 1.224646799142289e-16
923530882.7206802 -0.9999999999959279 1.2246467991423664e-16 2.8537998244927943e-06 0.0 2.8537998244927943e-06 0.0 -0.9999999999959279 1.2246467991423664e-16
923618404.6011503 -0.99999999999599 1.2246467991424423e-16 2.831972800595052e-06 0.0 2.831972800595052e-06 0.0 -0.99999999999599 1.2246467991424423e-16
923705926.4816204 -0.9999999999960509 1.224646799142517e-16 2.8103478570712074e-06 0.0 2.8103478570712074e-06 0.0 -0.9999999999960509 1.224646799142517e-16
923793448.3620906 -0.9999999999961109 1.2246467991425905e-16 2.788922801022004e-06 0.0 2.788922801022004e-06 0.0 -0.9999999999961109 1.2246467991425905e-16
923880970.2425606 -0.99999999999617 1.2246467991426627e-16 2.767695466815056e-06 0.0 2.767695466815056e-06 0.0 -0.99999999999617 1.2246467991426627e-16
923968492.1230308 -0.9999999999962279 1.2246467991427337e-16 2.7466637157025423e-06 0.0 2.7466637157025423e-06 0.0 -0.9999999999962279 1.2246467991427337e-16
924056014.0035009 -0.9999999999962849 1.2246467991428035e-16 2.7258254354455887e-06 0.0 2.7258254354455887e-06 0.0 -0.9999999999962849 1.2246467991428035e-16
924143535.883971 -0.9999999999963409 1.2246467991428722e-16 2.7051785399438824e-06 0.0 2.7051785399438824e-06 0.0 -0.9999999999963409 1.2246467991428722e-16
924231057.7644411 -0.9999999999963961 1.2246467991429398e-16 2.6847209688711676e-06 0.0 2.6847209688711676e-06 0.0 -0.9999999999963961 1.2246467991429398e-16
924318579.6449113 -0.9999999999964503 1.224646799143006e-16 2.6644506873166684e-06 0.0 2.6644506873166684e-06 0.0 -0.9999999999964503 1.224646799143006e-16
924406101.5253813 -0.9999999999965037 1.2246467991430714e-16 2.6443656854317958e-06 0.0 2.6443656854317958e-06 0.0 -0.9999999999965037 1.2246467991430714e-16
924493623.4058515 -0.9999999999965561 1.2246467991431355e-16 2.6244639780822948e-06 0.0 2.6244639780822948e-06 0.0 -0.9999999999965561 1.2246467991431355e-16
924581145.2863216 -0.9999999999966076 1.2246467991431986e-16 2.604743604506006e-06 0.0 2.604743604506006e-06 0.0 -0.9999999999966076 1.2246467991431986e-16
924668667.1667918 -0.9999999999966583 1.2246467991432607e-16 2.5852026279755725e-06 0.0 2.5852026279755725e-06 0.0 -0.9999999999966583 1.2246467991432607e-16
924756189.0472618 -0.9999999999967082 1.224646799143322e-16 2.5658391354666786e-06 0.0 2.5658391354666786e-06 0.0 -0.9999999999967082 1.224646799143322e-16
924843710.927732 -0.9999999999967573 1.224646799143382e-16 2.5466512373309944e-06 0.0 2.5466512373309944e-06 0.0 -0.9999999999967573 1.224646799143382e-16
924931232.8082021 -0.9999999999968054 1.224646799143441e-16 2.5276370669746145e-06 0.0 2.5276370669746145e-06 0.0 -0.9999999999968054 1.224646799143441e-16
925018754.6886722 -0.999999999996853 1.2246467991434991e-16 2.5087947805409726e-06 0.0 2.5087947805409726e-06 0.0 -0.999999999996853 1.2246467991434991e-16
925106276.5691422 -0.9999999999968996 1.2246467991435563e-16 2.490122556598764e-06 0.0 2.490122556598764e-06 0.0 -0.9999999999968996 1.2246467991435563e-16
925193798.4496124 -0.9999999999969456 1.2246467991436125e-16 2.471618595834755e-06 0.0 2.471618595834755e-06 0.0 -0.9999999999969456 1.2246467991436125e-16
925281320.3300825 -0.9999999999969906 1.2246467991436677e-16 2.453281120751107e-06 0.0 2.453281120751107e-06 0.0 -0.9999999999969906 1.2246467991436677e-16
925368842.2105526 -0.9999999999970351 1.2246467991437222e-16 2.435108375367494e-06 0.0 2.435108375367494e-06 0.0 -0.9999999999970351 1.2246467991437222e-16
925456364.0910227 -0.9999999999970788 1.2246467991437757e-16 2.4170986249273603e-06 0.0 2.4170986249273603e-06 0.0 -0.9999999999970788 1.2246467991437757e-16
925543885.9714929 -0.9999999999971217 1.2246467991438285e-16 2.3992501556091964e-06 0.0 2.3992501556091964e-06 0.0 -0.9999999999971217 1.2246467991438285e-16
925631407.8519629 -0.999999999997164 1.2246467991438802e-16 2.381561274241617e-06 0.0 2.381561274241617e-06 0.0 -0.999999999997164 1.2246467991438802e-16
925718929.7324331 -0.9999999999972057 1.224646799143931e-16 2.3640303080232222e-06 0.0 2.3640303080232222e-06 0.0 -0.9999999999972057 1.224646799143931e-16
925806451.6129032 -0.9999999999972465 1.224646799143981e-16 2.346655604246308e-06 0.0 2.346655604246308e-06 0.0 -0.9999999999972465 1.224646799143981e-16
925893973.4933733 -0.9999999999972868 1.2246467991440306e-16 2.329435530025109e-06 0.0 2.329435530025109e-06 0.0 -0.9999999999972868 1.2246467991440306e-16
925981495.3738434 -0.9999999999973265 1.2246467991440792e-16 2.312368472027673e-06 0.0 2.312368472027673e-06 0.0 -0.9999999999973265 1.2246467991440792e-16
926069017.2543136 -0.9999999999973654 1.2246467991441268e-16 2.295452836212299e-06 0.0 2.295452836212299e-06 0.0 -0.9999999999973654 1.2246467991441268e-16
926156539.1347836 -0.9999999999974037 1.2246467991441736e-16 2.2786870475674837e-06 0.0 2.2786870475674837e-06 0.0 -0.9999999999974037 1.2246467991441736e-16
926244061.0152538 -0.9999999999974415 1.22464679914422e-16 2.2620695498559275e-06 0.0 2.2620695498559275e-06 0.0 -0.9999999999974415 1.22464679914422e-16
926331582.8957239 -0.9999999999974786 1.2246467991442653e-16 2.245598805362531e-06 0.0 2.245598805362531e-06 0.0 -0.9999999999974786 1.2246467991442653e-16
926419104.7761941 -0.9999999999975151 1.2246467991443102e-16 2.2292732946458917e-06 0.0 2.2292732946458917e-06 0.0 -0.9999999999975151 1.2246467991443102e-16
926506626.6566641 -0.9999999999975511 1.224646799144354e-16 2.2130915162935937e-06 0.0 2.2130915162935937e-06 0.0 -0.9999999999975511 1.224646799144354e-16
926594148.5371343 -0.9999999999975865 1.2246467991443974e-16 2.197051986681233e-06 0.0 2.197051986681233e-06 0.0 -0.9999999999975865 1.2246467991443974e-16
926681670.4176044 -0.9999999999976212 1.22464679914444e-16 2.1811532397349267e-06 0.0 2.1811532397349267e-06 0.0 -0.9999999999976212 1.22464679914444e-16
926769192.2980745 -0.9999999999976555 1.224646799144482e-16 2.165393826697441e-06 0.0 2.165393826697441e-06 0.0 -0.9999999999976555 1.224646799144482e-16
926856714.1785446 -0.9999999999976892 1.2246467991445232e-16 2.1497723158975756e-06 0.0 2.1497723158975756e-06 0.0 -0.9999999999976892 1.2246467991445232e-16
926944236.0590148 -0.9999999999977224 1.2246467991445638e-16 2.134287292523321e-06 0.0 2.134287292523321e-06 0.0 -0.9999999999977224 1.2246467991445638e-16
927031757.9394848 -0.999999999997755 1.2246467991446038e-16 2.118937358397968e-06 0.0 2.118937358397968e-06 0.0 -0.999999999997755 1.2246467991446038e-16
927119279.819955 -0.9999999999977871 1.2246467991446432e-16 2.1037211317597644e-06 0.0 2.1037211317597644e-06 0.0 -0.9999999999977871 1.2246467991446432e-16
927206801.7004251 -0.9999999999978187 1.224646799144682e-16 2.088637247044877e-06 0.0 2.088637247044877e-06 0.0 -0.9999999999978187 1.224646799144682e-16
927294323.5808953 -0.9999999999978499 1.2246467991447201e-16 2.0736843546732975e-06 0.0 2.0736843546732975e-06 0.0 -0.9999999999978499 1.2246467991447201e-16
927381845.4613653 -0.9999999999978805 1.2246467991447576e-16 2.0588611208380505e-06 0.0 2.0588611208380505e-06 0.0 -0.9999999999978805 1.2246467991447576e-16
927469367.3418355 -0.9999999999979107 1.2246467991447946e-16 2.0441662272975506e-06 0.0 2.0441662272975506e-06 0.0 -0.9999999999979107 1.2246467991447946e-16
927556889.2223057 -0.9999999999979403 1.2246467991448308e-16 2.029598371170786e-06 0.0 2.029598371170786e-06 0.0 -0.9999999999979403 1.2246467991448308e-16
927644411.1027757 -0.9999999999979695 1.2246467991448666e-16 2.0151562647358408e-06 0.0 2.0151562647358408e-06 0.0 -0.9999999999979695 1.2246467991448666e-16
927731932.9832458 -0.9999999999979983 1.2246467991449018e-16 2.0008386352308745e-06 0.0 2.0008386352308745e-06 0.0 -0.9999999999979983 1.2246467991449018e-16
927819454.863716 -0.9999999999980266 1.2246467991449366e-16 1.98664422465857e-06 0.0 1.98664422465857e-06 0.0 -0.9999999999980266 1.2246467991449366e-16
927906976.744186 -0.9999999999980544 1.2246467991449706e-16 1.9725717895929337e-06 0.0 1.9725717895929337e-06 0.0 -0.9999999999980544 1.2246467991449706e-16
927994498.6246562 -0.9999999999980819 1.2246467991450041e-16 1.9586201009891505e-06 0.0 1.9586201009891505e-06 0.0 -0.9999999999980819 1.2246467991450041e-16
928082020.5051264 -0.9999999999981088 1.2246467991450372e-16 1.944787943996241e-06 0.0 1.944787943996241e-06 0.0 -0.9999999999981088 1.2246467991450372e-16
928169542.3855965 -0.9999999999981355 1.22464679914507e-16 1.93107411777229e-06 0.0 1.93107411777229e-06 0.0 -0.9999999999981355 1.22464679914507e-16
928257064.2660666 -0.9999999999981616 1.2246467991451017e-16 1.9174774353023787e-06 0.0 1.9174774353023787e-06 0.0 -0.9999999999981616 1.2246467991451017e-16
928344586.1465367 -0.9999999999981873 1.2246467991451333e-16 1.9039967232192405e-06 0.0 1.9039967232192405e-06 0.0 -0.9999999999981873 1.2246467991451333e-16
928432108.0270069 -0.9999999999982128 1.2246467991451644e-16 1.890630821626381e-06 0.0 1.890630821626381e-06 0.0 -0.9999999999982128 1.2246467991451644e-16
928519629.9074769 -0.9999999999982377 1.2246467991451952e-16 1.877378583923912e-06 0.0 1.877378583923912e-06 0.0 -0.9999999999982377 1.2246467991451952e-16
928607151.787947 -0.9999999999982623 1.224646799145225e-16 1.8642388766366245e-06 0.0 1.8642388766366245e-06 0.0 -0.9999999999982623 1.224646799145225e-16
928694673.6684172 -0.9999999999982865 1.2246467991452548e-16 1.8512105792448835e-06 0.0 1.8512105792448835e-06 0.0 -0.9999999999982865 1.2246467991452548e-16
928782195.5488873 -0.9999999999983104 1.224646799145284e-16 1.8382925840176181e-06 0.0 1.8382925840176181e-06 0.0 -0.9999999999983104 1.224646799145284e-16
928869717.4293574 -0.9999999999983338 1.2246467991453128e-16 1.8254837958478678e-06 0.0 1.8254837958478678e-06 0.0 -0.9999999999983338 1.2246467991453128e-16
928957239.3098276 -0.9999999999983569 1.2246467991453409e-16 1.812783132090754e-06 0.0 1.812783132090754e-06 0.0 -0.9999999999983569 1.2246467991453409e-16
929044761.1902977 -0.9999999999983796 1.2246467991453687e-16 1.800189522403567e-06 0.0 1.800189522403567e-06 0.0 -0.9999999999983796 1.2246467991453687e-16
929132283.0707676 -0.9999999999984021 1.2246467991453963e-16 1.7877019085882813e-06 0.0 1.7877019085882813e-06 0.0 -0.9999999999984021 1.2246467991453963e-16
929219804.9512378 -0.999999999998424 1.2246467991454232e-16 1.7753192444362178e-06 0.0 1.7753192444362178e-06 0.0 -0.999999999998424 1.2246467991454232e-16
929307326.831708 -0.9999999999984458 1.2246467991454498e-16 1.763040495575078e-06 0.0 1.763040495575078e-06 0.0 -0.9999999999984458 1.2246467991454498e-16
929394848.712178 -0.9999999999984672 1.2246467991454762e-16 1.7508646393179516e-06 0.0 1.7508646393179516e-06 0.0 -0.9999999999984672 1.2246467991454762e-16
929482370.5926481 -0.9999999999984883 1.2246467991455018e-16 1.7387906645145136e-06 0.0 1.7387906645145136e-06 0.0 -0.9999999999984883 1.2246467991455018e-16
929569892.4731183 -0.999999999998509 1.2246467991455272e-16 1.7268175714045106e-06 0.0 1.7268175714045106e-06 0.0 -0.999999999998509 1.2246467991455272e-16
929657414.3535883 -0.9999999999985295 1.2246467991455524e-16 1.7149443714730666e-06 0.0 1.7149443714730666e-06 0.0 -0.9999999999985295 1.2246467991455524e-16
929744936.2340585 -0.9999999999985496 1.224646799145577e-16 1.7031700873081238e-06 0.0 1.7031700873081238e-06 0.0 -0.9999999999985496 1.224646799145577e-16
929832458.1145287 -0.9999999999985694 1.2246467991456012e-16 1.6914937524599798e-06 0.0 1.6914937524599798e-06 0.0 -0.9999999999985694 1.2246467991456012e-16
929919979.9949988 -0.9999999999985889 1.224646799145625e-16 1.6799144113027127e-06 0.0 1.6799144113027127e-06 0.0 -0.9999999999985889 1.224646799145625e-16
930007501.8754689 -0.9999999999986081 1.2246467991456485e-16 1.6684311188975642e-06 0.0 1.6684311188975642e-06 0.0 -0.9999999999986081 1.2246467991456485e-16
930095023.755939 -0.9999999999986271 1.224646799145672e-16 1.657042940858186e-06 0.0 1.657042940858186e-06 0.0 -0.9999999999986271 1.224646799145672e-16
930182545.6364092 -0.9999999999986457 1.2246467991456946e-16 1.6457489532179922e-06 0.0 1.6457489532179922e-06 0.0 -0.9999999999986457 1.2246467991456946e-16
930270067.5168792 -0.9999999999986641 1.224646799145717e-16 1.634548242299053e-06 0.0 1.634548242299053e-06 0.0 -0.9999999999986641 1.224646799145717e-16
930357589.3973494 -0.9999999999986822 1.2246467991457392e-16 1.6234399045830519e-06 0.0 1.6234399045830519e-06 0.0 -0.9999999999986822 1.2246467991457392e-16
930445111.2778195 -0.9999999999987 1.2246467991457612e-16 1.6124230465840133e-06 0.0 1.6124230465840133e-06 0.0 -0.9999999999987 1.2246467991457612e-16
930532633.1582896 -0.9999999999987176 1.2246467991457826e-16 1.6014967847227175e-06 0.0 1.6014967847227175e-06 0.0 -0.9999999999987176 1.2246467991457826e-16
930620155.0387597 -0.9999999999987349 1.2246467991458038e-16 1.5906602452028809e-06 0.0 1.5906602452028809e-06 0.0 -0.9999999999987349 1.2246467991458038e-16
930707676.9192299 -0.9999999999987519 1.2246467991458248e-16 1.5799125638891312e-06 0.0 1.5799125638891312e-06 0.0 -0.9999999999987519 1.2246467991458248e-16
930795198.7997 -0.9999999999987687 1.2246467991458453e-16 1.5692528861866657e-06 0.0 1.5692528861866657e-06 0.0 -0.9999999999987687 1.2246467991458453e-16
930882720.68017 -0.9999999999987852 1.2246467991458655e-16 1.558680366922479e-06 0.0 1.558680366922479e-06 0.0 -0.9999999999987852 1.2246467991458655e-16
930970242.5606402 -0.9999999999988015 1.2246467991458854e-16 1.54819417022829e-06 0.0 1.54819417022829e-06 0.0 -0.9999999999988015 1.2246467991458854e-16
931057764.4411104 -0.9999999999988176 1.2246467991459052e-16 1.5377934694251816e-06 0.0 1.5377934694251816e-06 0.0 -0.9999999999988176 1.2246467991459052e-16
931145286.3215804 -0.9999999999988334 1.2246467991459246e-16 1.5274774469096519e-06 0.0 1.5274774469096519e-06 0.0 -0.9999999999988334 1.2246467991459246e-16
931232808.2020506 -0.9999999999988489 1.2246467991459436e-16 1.5172452940413664e-06 0.0 1.5172452940413664e-06 0.0 -0.9999999999988489 1.2246467991459436e-16
931320330.0825207 -0.9999999999988644 1.2246467991459623e-16 1.5070962110324454e-06 0.0 1.5070962110324454e-06 0.0 -0.9999999999988644 1.2246467991459623e-16
931407851.9629908 -0.9999999999988795 1.2246467991459808e-16 1.4970294068382352e-06 0.0 1.4970294068382352e-06 0.0 -0.9999999999988795 1.2246467991459808e-16
931495373.8434609 -0.9999999999988943 1.224646799145999e-16 1.4870440990495157e-06 0.0 1.4870440990495157e-06 0.0 -0.9999999999988943 1.224646799145999e-16
931582895.723931 -0.999999999998909 1.224646799146017e-16 1.4771395137863664e-06 0.0 1.4771395137863664e-06 0.0 -0.999999999998909 1.224646799146017e-16
931670417.6044011 -0.9999999999989234 1.2246467991460348e-16 1.4673148855933078e-06 0.0 1.4673148855933078e-06 0.0 -0.9999999999989234 1.2246467991460348e-16
931757939.4848711 -0.9999999999989377 1.2246467991460523e-16 1.4575694573359736e-06 0.0 1.4575694573359736e-06 0.0 -0.9999999999989377 1.2246467991460523e-16
931845461.3653413 -0.9999999999989517 1.2246467991460693e-16 1.4479024800991154e-06 0.0 1.4479024800991154e-06 0.0 -0.9999999999989517 1.2246467991460693e-16
931932983.2458115 -0.9999999999989656 1.2246467991460863e-16 1.4383132130861403e-06 0.0 1.4383132130861403e-06 0.0 -0.9999999999989656 1.2246467991460863e-16
932020505.1262815 -0.9999999999989793 1.224646799146103e-16 1.428800923519839e-06 0.0 1.428800923519839e-06 0.0 -0.9999999999989793 1.224646799146103e-16
932108027.0067517 -0.9999999999989927 1.2246467991461196e-16 1.4193648865445454e-06 0.0 1.4193648865445454e-06 0.0 -0.9999999999989927 1.2246467991461196e-16
932195548.8872218 -0.9999999999990059 1.224646799146136e-16 1.410004385129655e-06 0.0 1.410004385129655e-06 0.0 -0.9999999999990059 1.224646799146136e-16
932283070.7676919 -0.999999999999019 1.224646799146152e-16 1.4007187099744453e-06 0.0 1.4007187099744453e-06 0.0 -0.999999999999019 1.224646799146152e-16
932370592.648162 -0.9999999999990318 1.2246467991461675e-16 1.3915071594140572e-06 0.0 1.3915071594140572e-06 0.0 -0.9999999999990318 1.2246467991461675e-16
932458114.5286322 -0.9999999999990445 1.2246467991461832e-16 1.3823690393269646e-06 0.0 1.3823690393269646e-06 0.0 -0.9999999999990445 1.2246467991461832e-16
932545636.4091023 -0.999999999999057 1.2246467991461983e-16 1.3733036630435187e-06 0.0 1.3733036630435187e-06 0.0 -0.999999999999057 1.2246467991461983e-16
932633158.2895724 -0.9999999999990693 1.2246467991462135e-16 1.3643103512557603e-06 0.0 1.3643103512557603e-06 0.0 -0.9999999999990693 1.2246467991462135e-16
932720680.1700425 -0.9999999999990814 1.2246467991462283e-16 1.3553884319284858e-06 0.0 1.3553884319284858e-06 0.0 -0.9999999999990814 1.2246467991462283e-16
932808202.0505127 -0.9999999999990934 1.224646799146243e-16 1.3465372402115212e-06 0.0 1.3465372402115212e-06 0.0 -0.9999999999990934 1.224646799146243e-16
932895723.9309827 -0.9999999999991052 1.2246467991462574e-16 1.3377561183531335e-06 0.0 1.3377561183531335e-06 0.0 -0.9999999999991052 1.2246467991462574e-16
932983245.8114529 -0.9999999999991168 1.2246467991462717e-16 1.3290444156145414e-06 0.0 1.3290444156145414e-06 0.0 -0.9999999999991168 1.2246467991462717e-16
933070767.691923 -0.9999999999991283 1.2246467991462855e-16 1.3204014881857221e-06 0.0 1.3204014881857221e-06 0.0 -0.9999999999991283 1.2246467991462855e-16
933158289.5723931 -0.9999999999991396 1.2246467991462996e-16 1.311826699102261e-06 0.0 1.311826699102261e-06 0.0 -0.9999999999991396 1.2246467991462996e-16
933245811.4528632 -0.9999999999991507 1.2246467991463131e-16 1.3033194181632199e-06 0.0 1.3033194181632199e-06 0.0 -0.9999999999991507 1.2246467991463131e-16
933333333.3333334 -0.9999999999991617 1.2246467991463265e-16 1.294879021850301e-06 0.0 1.294879021850301e-06 0.0 -0.9999999999991617 1.2246467991463265e-16
933420855.2138034 -0.9999999999991724 1.2246467991463398e-16 1.2865048932479475e-06 0.0 1.2865048932479475e-06 0.0 -0.9999999999991724 1.2246467991463398e-16
933508377.0942736 -0.9999999999991831 1.2246467991463528e-16 1.2781964219644702e-06 0.0 1.2781964219644702e-06 0.0 -0.9999999999991831 1.2246467991463528e-16
933595898.9747437 -0.9999999999991935 1.2246467991463657e-16 1.2699530040543652e-06 0.0 1.2699530040543652e-06 0.0 -0.9999999999991935 1.2246467991463657e-16
933683420.8552139 -0.999999999999204 1.2246467991463785e-16 1.261774041941561e-06 0.0 1.261774041941561e-06 0.0 -0.999999999999204 1.2246467991463785e-16
933770942.7356839 -0.9999999999992142 1.2246467991463908e-16 1.2536589443437204e-06 0.0 1.2536589443437204e-06 0.0 -0.9999999999992142 1.2246467991463908e-16
933858464.6161541 -0.9999999999992242 1.224646799146403e-16 1.2456071261974696e-06 0.0 1.2456071261974696e-06 0.0 -0.9999999999992242 1.224646799146403e-16
933945986.4966242 -0.9999999999992342 1.2246467991464154e-16 1.2376180085847167e-06 0.0 1.2376180085847167e-06 0.0 -0.9999999999992342 1.2246467991464154e-16
934033508.3770943 -0.9999999999992439 1.2246467991464273e-16 1.229691018659943e-06 0.0 1.229691018659943e-06 0.0 -0.9999999999992439 1.2246467991464273e-16
934121030.2575644 -0.9999999999992536 1.224646799146439e-16 1.2218255895782856e-06 0.0 1.2218255895782856e-06 0.0 -0.9999999999992536 1.224646799146439e-16
934208552.1380346 -0.999999999999263 1.2246467991464507e-16 1.214021160424806e-06 0.0 1.214021160424806e-06 0.0 -0.999999999999263 1.2246467991464507e-16
934296074.0185046 -0.9999999999992725 1.2246467991464623e-16 1.2062771761445337e-06 0.0 1.2062771761445337e-06 0.0 -0.9999999999992725 1.2246467991464623e-16
934383595.8989748 -0.9999999999992817 1.2246467991464736e-16 1.1985930874733968e-06 0.0 1.1985930874733968e-06 0.0 -0.9999999999992817 1.2246467991464736e-16
934471117.7794449 -0.9999999999992908 1.2246467991464847e-16 1.190968350870199e-06 0.0 1.190968350870199e-06 0.0 -0.9999999999992908 1.2246467991464847e-16
934558639.6599151 -0.9999999999992998 1.2246467991464956e-16 1.1834024284494017e-06 0.0 1.1834024284494017e-06 0.0 -0.9999999999992998 1.2246467991464956e-16
934646161.5403851 -0.9999999999993086 1.2246467991465064e-16 1.1758947879147698e-06 0.0 1.1758947879147698e-06 0.0 -0.9999999999993086 1.2246467991465064e-16
934733683.4208553 -0.9999999999993173 1.2246467991465173e-16 1.1684449024938924e-06 0.0 1.1684449024938924e-06 0.0 -0.9999999999993173 1.2246467991465173e-16
934821205.3013254 -0.999999999999326 1.2246467991465279e-16 1.1610522508736003e-06 0.0 1.1610522508736003e-06 0.0 -0.999999999999326 1.2246467991465279e-16
934908727.1817955 -0.9999999999993344 1.2246467991465382e-16 1.1537163171362093e-06 0.0 1.1537163171362093e-06 0.0 -0.9999999999993344 1.2246467991465382e-16
934996249.0622656 -0.9999999999993429 1.2246467991465483e-16 1.1464365906964982e-06 0.0 1.1464365906964982e-06 0.0 -0.9999999999993429 1.2246467991465483e-16
935083770.9427358 -0.9999999999993511 1.2246467991465584e-16 1.1392125662396914e-06 0.0 1.1392125662396914e-06 0.0 -0.9999999999993511 1.2246467991465584e-16
935171292.8232058 -0.9999999999993592 1.2246467991465685e-16 1.1320437436600315e-06 0.0 1.1320437436600315e-06 0.0 -0.9999999999993592 1.2246467991465685e-16
935258814.703676 -0.9999999999993673 1.2246467991465784e-16 1.1249296280003284e-06 0.0 1.1249296280003284e-06 0.0 -0.9999999999993673 1.2246467991465784e-16
935346336.5841461 -0.9999999999993752 1.224646799146588e-16 1.1178697293921753e-06 0.0 1.1178697293921753e-06 0.0 -0.9999999999993752 1.224646799146588e-16
935433858.4646163 -0.9999999999993829 1.2246467991465976e-16 1.1108635629969817e-06 0.0 1.1108635629969817e-06 0.0 -0.9999999999993829 1.2246467991465976e-16
935521380.3450863 -0.9999999999993907 1.224646799146607e-16 1.1039106489477746e-06 0.0 1.1039106489477746e-06 0.0 -0.9999999999993907 1.224646799146607e-16
935608902.2255565 -0.9999999999993983 1.2246467991466164e-16 1.0970105122916953e-06 0.0 1.0970105122916953e-06 0.0 -0.9999999999993983 1.2246467991466164e-16
935696424.1060265 -0.9999999999994057 1.2246467991466255e-16 1.0901626829333224e-06 0.0 1.0901626829333224e-06 0.0 -0.9999999999994057 1.2246467991466255e-16
935783945.9864966 -0.9999999999994131 1.2246467991466346e-16 1.0833666955786229e-06 0.0 1.0833666955786229e-06 0.0 -0.9999999999994131 1.2246467991466346e-16
935871467.8669667 -0.9999999999994205 1.2246467991466435e-16 1.0766220896797276e-06 0.0 1.0766220896797276e-06 0.0 -0.9999999999994205 1.2246467991466435e-16
935958989.7474369 -0.9999999999994276 1.224646799146652e-16 1.0699284093803116e-06 0.0 1.0699284093803116e-06 0.0 -0.9999999999994276 1.224646799146652e-16
936046511.6279069 -0.9999999999994347 1.224646799146661e-16 1.0632852034617702e-06 0.0 1.0632852034617702e-06 0.0 -0.9999999999994347 1.224646799146661e-16
936134033.5083771 -0.9999999999994417 1.2246467991466694e-16 1.0566920252899578e-06 0.0 1.0566920252899578e-06 0.0 -0.9999999999994417 1.2246467991466694e-16
936221555.3888472 -0.9999999999994486 1.224646799146678e-16 1.0501484327627685e-06 0.0 1.0501484327627685e-06 0.0 -0.9999999999994486 1.224646799146678e-16
936309077.2693174 -0.9999999999994553 1.2246467991466861e-16 1.0436539882582307e-06 0.0 1.0436539882582307e-06 0.0 -0.9999999999994553 1.2246467991466861e-16
936396599.1497874 -0.9999999999994621 1.2246467991466945e-16 1.0372082585833926e-06 0.0 1.0372082585833926e-06 0.0 -0.9999999999994621 1.2246467991466945e-16
936484121.0302576 -0.9999999999994686 1.2246467991467024e-16 1.030810814923701e-06 0.0 1.030810814923701e-06 0.0 -0.9999999999994686 1.2246467991467024e-16
936571642.9107277 -0.9999999999994752 1.2246467991467105e-16 1.0244612327932238e-06 0.0 1.0244612327932238e-06 0.0 -0.9999999999994752 1.2246467991467105e-16
936659164.7911978 -0.9999999999994816 1.2246467991467184e-16 1.01815909198531e-06 0.0 1.01815909198531e-06 0.0 -0.9999999999994816 1.2246467991467184e-16
936746686.6716679 -0.999999999999488 1.224646799146726e-16 1.0119039765240026e-06 0.0 1.0119039765240026e-06 0.0 -0.999999999999488 1.224646799146726e-16
936834208.5521381 -0.9999999999994943 1.224646799146734e-16 1.0056954746160056e-06 0.0 1.0056954746160056e-06 0.0 -0.9999999999994943 1.224646799146734e-16
936921730.4326081 -0.9999999999995004 1.2246467991467413e-16 9.995331786032967e-07 0.0 9.995331786032967e-07 0.0 -0.9999999999995004 1.2246467991467413e-16
937009252.3130783 -0.9999999999995065 1.2246467991467487e-16 9.934166849162574e-07 0.0 9.934166849162574e-07 0.0 -0.9999999999995065 1.2246467991467487e-16
937096774.1935484 -0.9999999999995125 1.2246467991467561e-16 9.87345594027553e-07 0.0 9.87345594027553e-07 0.0 -0.9999999999995125 1.2246467991467561e-16
937184296.0740186 -0.9999999999995185 1.2246467991467635e-16 9.813195104063654e-07 0.0 9.813195104063654e-07 0.0 -0.9999999999995185 1.2246467991467635e-16
937271817.9544886 -0.9999999999995244 1.2246467991467707e-16 9.753380424734414e-07 0.0 9.753380424734414e-07 0.0 -0.9999999999995244 1.2246467991467707e-16
937359339.8349588 -0.9999999999995302 1.2246467991467778e-16 9.694008025564891e-07 0.0 9.694008025564891e-07 0.0 -0.9999999999995302 1.2246467991467778e-16
937446861.715429 -0.9999999999995358 1.2246467991467847e-16 9.635074068463226e-07 0.0 9.635074068463226e-07 0.0 -0.9999999999995358 1.2246467991467847e-16
937534383.595899 -0.9999999999995414 1.2246467991467916e-16 9.57657475353409e-07 0.0 9.57657475353409e-07 0.0 -0.9999999999995414 1.2246467991467916e-16
937621905.4763691 -0.9999999999995469 1.2246467991467983e-16 9.5185063186501e-07 0.0 9.5185063186501e-07 0.0 -0.9999999999995469 1.2246467991467983e-16
937709427.3568393 -0.9999999999995525 1.2246467991468052e-16 9.460865039029261e-07 0.0 9.460865039029261e-07 0.0 -0.9999999999995525 1.2246467991468052e-16
937796949.2373093 -0.9999999999995578 1.2246467991468116e-16 9.40364722681646e-07 0.0 9.40364722681646e-07 0.0 -0.9999999999995578 1.2246467991468116e-16
937884471.1177795 -0.9999999999995631 1.2246467991468183e-16 9.346849230670778e-07 0.0 9.346849230670778e-07 0.0 -0.9999999999995631 1.2246467991468183e-16
937971992.9982497 -0.9999999999995685 1.2246467991468247e-16 9.290467435358449e-07 0.0 9.290467435358449e-07 0.0 -0.9999999999995685 1.2246467991468247e-16
938059514.8787197 -0.9999999999995736 1.224646799146831e-16 9.234498261349759e-07 0.0 9.234498261349759e-07 0.0 -0.9999999999995736 1.224646799146831e-16
938147036.7591897 -0.9999999999995787 1.2246467991468372e-16 9.178938164421741e-07 0.0 9.178938164421741e-07 0.0 -0.9999999999995787 1.2246467991468372e-16
938234558.6396599 -0.9999999999995838 1.2246467991468434e-16 9.123783635265568e-07 0.0 9.123783635265568e-07 0.0 -0.9999999999995838 1.2246467991468434e-16
938322080.52013 -0.9999999999995888 1.2246467991468496e-16 9.069031199099063e-07 0.0 9.069031199099063e-07 0.0 -0.9999999999995888 1.2246467991468496e-16
938409602.4006001 -0.9999999999995937 1.2246467991468555e-16 9.014677415283542e-07 0.0 9.014677415283542e-07 0.0 -0.9999999999995937 1.2246467991468555e-16
938497124.2810702 -0.9999999999995985 1.2246467991468616e-16 8.960718876945149e-07 0.0 8.960718876945149e-07 0.0 -0.9999999999995985 1.2246467991468616e-16
938584646.1615404 -0.9999999999996033 1.2246467991468673e-16 8.907152210602176e-07 0.0 8.907152210602176e-07 0.0 -0.9999999999996033 1.2246467991468673e-16
938672168.0420104 -0.999999999999608 1.2246467991468732e-16 8.853974075795482e-07 0.0 8.853974075795482e-07 0.0 -0.999999999999608 1.2246467991468732e-16
938759689.9224806 -0.9999999999996126 1.224646799146879e-16 8.801181164724035e-07 0.0 8.801181164724035e-07 0.0 -0.9999999999996126 1.224646799146879e-16
938847211.8029507 -0.9999999999996173 1.2246467991468846e-16 8.748770201885487e-07 0.0 8.748770201885487e-07 0.0 -0.9999999999996173 1.2246467991468846e-16
938934733.6834209 -0.9999999999996219 1.22464679914689e-16 8.696737943720082e-07 0.0 8.696737943720082e-07 0.0 -0.9999999999996219 1.22464679914689e-16
939022255.5638909 -0.9999999999996263 1.2246467991468957e-16 8.645081178259766e-07 0.0 8.645081178259766e-07 0.0 -0.9999999999996263 1.2246467991468957e-16
939109777.4443611 -0.9999999999996307 1.224646799146901e-16 8.593796724780997e-07 0.0 8.593796724780997e-07 0.0 -0.9999999999996307 1.224646799146901e-16
939197299.3248312 -0.9999999999996351 1.2246467991469063e-16 8.542881433462534e-07 0.0 8.542881433462534e-07 0.0 -0.9999999999996351 1.2246467991469063e-16
939284821.2053013 -0.9999999999996394 1.2246467991469117e-16 8.49233218504671e-07 0.0 8.49233218504671e-07 0.0 -0.9999999999996394 1.2246467991469117e-16
939372343.0857714 -0.9999999999996436 1.2246467991469169e-16 8.442145890504877e-07 0.0 8.442145890504877e-07 0.0 -0.9999999999996436 1.2246467991469169e-16
939459864.9662416 -0.9999999999996478 1.224646799146922e-16 8.392319490707665e-07 0.0 8.392319490707665e-07 0.0 -0.9999999999996478 1.224646799146922e-16
939547386.8467116 -0.999999999999652 1.224646799146927e-16 8.342849956098133e-07 0.0 8.342849956098133e-07 0.0 -0.999999999999652 1.224646799146927e-16
939634908.7271818 -0.999999999999656 1.224646799146932e-16 8.293734286369764e-07 0.0 8.293734286369764e-07 0.0 -0.999999999999656 1.224646799146932e-16
939722430.607652 -0.99999999999966 1.2246467991469368e-16 8.244969510148103e-07 0.0 8.244969510148103e-07 0.0 -0.99999999999966 1.2246467991469368e-16
939809952.4881221 -0.999999999999664 1.2246467991469418e-16 8.196552684676235e-07 0.0 8.196552684676235e-07 0.0 -0.999999999999664 1.2246467991469418e-16
939897474.3685921 -0.9999999999996679 1.2246467991469465e-16 8.148480895503819e-07 0.0 8.148480895503819e-07 0.0 -0.9999999999996679 1.2246467991469465e-16
939984996.2490623 -0.9999999999996718 1.2246467991469514e-16 8.100751256180153e-07 0.0 8.100751256180153e-07 0.0 -0.9999999999996718 1.2246467991469514e-16
940072518.1295325 -0.9999999999996757 1.224646799146956e-16 8.053360907951185e-07 0.0 8.053360907951185e-07 0.0 -0.9999999999996757 1.224646799146956e-16
940160040.0100025 -0.9999999999996795 1.2246467991469607e-16 8.006307019459686e-07 0.0 8.006307019459686e-07 0.0 -0.9999999999996795 1.2246467991469607e-16
940247561.8904727 -0.9999999999996831 1.2246467991469652e-16 7.959586786448954e-07 0.0 7.959586786448954e-07 0.0 -0.9999999999996831 1.2246467991469652e-16
940335083.7709428 -0.9999999999996869 1.2246467991469699e-16 7.913197431471063e-07 0.0 7.913197431471063e-07 0.0 -0.9999999999996869 1.2246467991469699e-16
940422605.6514128 -0.9999999999996905 1.224646799146974e-16 7.867136203597174e-07 0.0 7.867136203597174e-07 0.0 -0.9999999999996905 1.224646799146974e-16
940510127.531883 -0.9999999999996941 1.2246467991469787e-16 7.821400378132304e-07 0.0 7.821400378132304e-07 0.0 -0.9999999999996941 1.2246467991469787e-16
940597649.4123532 -0.9999999999996977 1.224646799146983e-16 7.77598725633359e-07 0.0 7.77598725633359e-07 0.0 -0.9999999999996977 1.224646799146983e-16
940685171.2928232 -0.9999999999997011 1.2246467991469871e-16 7.730894165131315e-07 0.0 7.730894165131315e-07 0.0 -0.9999999999997011 1.2246467991469871e-16
940772693.1732934 -0.9999999999997046 1.2246467991469913e-16 7.686118456853253e-07 0.0 7.686118456853253e-07 0.0 -0.9999999999997046 1.2246467991469913e-16
940860215.0537635 -0.999999999999708 1.2246467991469955e-16 7.641657508953101e-07 0.0 7.641657508953101e-07 0.0 -0.999999999999708 1.2246467991469955e-16
940947736.9342337 -0.9999999999997113 1.2246467991469997e-16 7.597508723741554e-07 0.0 7.597508723741554e-07 0.0 -0.9999999999997113 1.2246467991469997e-16
941035258.8147037 -0.9999999999997147 1.224646799147004e-16 7.553669528120417e-07 0.0 7.553669528120417e-07 0.0 -0.9999999999997147 1.224646799147004e-16
941122780.6951739 -0.999999999999718 1.2246467991470078e-16 7.510137373320253e-07 0.0 7.510137373320253e-07 0.0 -0.999999999999718 1.2246467991470078e-16
941210302.575644 -0.9999999999997212 1.2246467991470118e-16 7.466909734641201e-07 0.0 7.466909734641201e-07 0.0 -0.9999999999997212 1.2246467991470118e-16
941297824.456114 -0.9999999999997244 1.2246467991470157e-16 7.423984111196476e-07 0.0 7.423984111196476e-07 0.0 -0.9999999999997244 1.2246467991470157e-16
941385346.3365842 -0.9999999999997276 1.2246467991470197e-16 7.381358025659037e-07 0.0 7.381358025659037e-07 0.0 -0.9999999999997276 1.2246467991470197e-16
941472868.2170544 -0.9999999999997307 1.2246467991470234e-16 7.339029024011696e-07 0.0 7.339029024011696e-07 0.0 -0.9999999999997307 1.2246467991470234e-16
941560390.0975244 -0.9999999999997338 1.224646799147027e-16 7.296994675299759e-07 0.0 7.296994675299759e-07 0.0 -0.9999999999997338 1.224646799147027e-16
941647911.9779946 -0.9999999999997368 1.2246467991470308e-16 7.255252571386183e-07 0.0 7.255252571386183e-07 0.0 -0.9999999999997368 1.2246467991470308e-16
941735433.8584647 -0.9999999999997398 1.2246467991470345e-16 7.213800326710533e-07 0.0 7.213800326710533e-07 0.0 -0.9999999999997398 1.2246467991470345e-16
941822955.7389349 -0.9999999999997428 1.2246467991470382e-16 7.172635578050352e-07 0.0 7.172635578050352e-07 0.0 -0.9999999999997428 1.2246467991470382e-16
941910477.6194049 -0.9999999999997456 1.2246467991470416e-16 7.131755984285235e-07 0.0 7.131755984285235e-07 0.0 -0.9999999999997456 1.2246467991470416e-16
941997999.4998751 -0.9999999999997485 1.2246467991470453e-16 7.091159226163414e-07 0.0 7.091159226163414e-07 0.0 -0.9999999999997485 1.2246467991470453e-16
942085521.3803452 -0.9999999999997514 1.2246467991470488e-16 7.050843006072014e-07 0.0 7.050843006072014e-07 0.0 -0.9999999999997514 1.2246467991470488e-16
942173043.2608151 -0.9999999999997542 1.2246467991470522e-16 7.010805047809097e-07 0.0 7.010805047809097e-07 0.0 -0.9999999999997542 1.2246467991470522e-16
942260565.1412853 -0.999999999999757 1.2246467991470557e-16 6.971043096358507e-07 0.0 6.971043096358507e-07 0.0 -0.999999999999757 1.2246467991470557e-16
942348087.0217555 -0.9999999999997597 1.2246467991470589e-16 6.931554917667934e-07 0.0 6.931554917667934e-07 0.0 -0.9999999999997597 1.2246467991470589e-16
942435608.9022255 -0.9999999999997624 1.2246467991470623e-16 6.892338298429028e-07 0.0 6.892338298429028e-07 0.0 -0.9999999999997624 1.2246467991470623e-16
942523130.7826957 -0.9999999999997651 1.2246467991470655e-16 6.853391045859941e-07 0.0 6.853391045859941e-07 0.0 -0.9999999999997651 1.2246467991470655e-16
942610652.6631658 -0.9999999999997677 1.2246467991470687e-16 6.81471098749115e-07 0.0 6.81471098749115e-07 0.0 -0.9999999999997677 1.2246467991470687e-16
942698174.543636 -0.9999999999997704 1.224646799147072e-16 6.776295970952819e-07 0.0 6.776295970952819e-07 0.0 -0.9999999999997704 1.224646799147072e-16
942785696.424106 -0.999999999999773 1.2246467991470751e-16 6.738143863765599e-07 0.0 6.738143863765599e-07 0.0 -0.999999999999773 1.2246467991470751e-16
942873218.3045762 -0.9999999999997755 1.2246467991470783e-16 6.700252553132774e-07 0.0 6.700252553132774e-07 0.0 -0.9999999999997755 1.2246467991470783e-16
942960740.1850463 -0.9999999999997781 1.2246467991470813e-16 6.662619945736032e-07 0.0 6.662619945736032e-07 0.0 -0.9999999999997781 1.2246467991470813e-16
943048262.0655164 -0.9999999999997805 1.2246467991470845e-16 6.62524396753263e-07 0.0 6.62524396753263e-07 0.0 -0.9999999999997805 1.2246467991470845e-16
943135783.9459865 -0.999999999999783 1.2246467991470875e-16 6.588122563555221e-07 0.0 6.588122563555221e-07 0.0 -0.999999999999783 1.2246467991470875e-16
943223305.8264567 -0.9999999999997854 1.2246467991470904e-16 6.551253697714149e-07 0.0 6.551253697714149e-07 0.0 -0.9999999999997854 1.2246467991470904e-16
943310827.7069267 -0.9999999999997877 1.2246467991470931e-16 6.514635352602078e-07 0.0 6.514635352602078e-07 0.0 -0.9999999999997877 1.2246467991470931e-16
943398349.5873969 -0.9999999999997902 1.2246467991470963e-16 6.478265529300199e-07 0.0 6.478265529300199e-07 0.0 -0.9999999999997902 1.2246467991470963e-16
943485871.467867 -0.9999999999997925 1.224646799147099e-16 6.442142247187709e-07 0.0 6.442142247187709e-07 0.0 -0.9999999999997925 1.224646799147099e-16
943573393.3483372 -0.9999999999997947 1.2246467991471018e-16 6.406263543752594e-07 0.0 6.406263543752594e-07 0.0 -0.9999999999997947 1.2246467991471018e-16
943660915.2288072 -0.999999999999797 1.2246467991471047e-16 6.370627474405161e-07 0.0 6.370627474405161e-07 0.0 -0.999999999999797 1.2246467991471047e-16
943748437.1092774 -0.9999999999997993 1.2246467991471074e-16 6.335232112293165e-07 0.0 6.335232112293165e-07 0.0 -0.9999999999997993 1.2246467991471074e-16
943835958.9897475 -0.9999999999998015 1.2246467991471101e-16 6.300075548119695e-07 0.0 6.300075548119695e-07 0.0 -0.9999999999998015 1.2246467991471101e-16
943923480.8702176 -0.9999999999998037 1.2246467991471129e-16 6.265155889962778e-07 0.0 6.265155889962778e-07 0.0 -0.9999999999998037 1.2246467991471129e-16
944011002.7506877 -0.9999999999998059 1.2246467991471156e-16 6.230471263096784e-07 0.0 6.230471263096784e-07 0.0 -0.9999999999998059 1.2246467991471156e-16
944098524.6311579 -0.999999999999808 1.224646799147118e-16 6.196019809816424e-07 0.0 6.196019809816424e-07 0.0 -0.999999999999808 1.224646799147118e-16
944186046.5116279 -0.9999999999998102 1.2246467991471207e-16 6.161799689262673e-07 0.0 6.161799689262673e-07 0.0 -0.9999999999998102 1.2246467991471207e-16
944273568.3920981 -0.9999999999998123 1.2246467991471232e-16 6.127809077249966e-07 0.0 6.127809077249966e-07 0.0 -0.9999999999998123 1.2246467991471232e-16
944361090.2725682 -0.9999999999998143 1.2246467991471257e-16 6.094046166096496e-07 0.0 6.094046166096496e-07 0.0 -0.9999999999998143 1.2246467991471257e-16
944448612.1530384 -0.9999999999998164 1.2246467991471284e-16 6.06050916445539e-07 0.0 6.06050916445539e-07 0.0 -0.9999999999998164 1.2246467991471284e-16
944536134.0335083 -0.9999999999998184 1.2246467991471308e-16 6.027196297148615e-07 0.0 6.027196297148615e-07 0.0 -0.9999999999998184 1.2246467991471308e-16
944623655.9139785 -0.9999999999998204 1.2246467991471333e-16 5.994105805002016e-07 0.0 5.994105805002016e-07 0.0 -0.9999999999998204 1.2246467991471333e-16
944711177.7944486 -0.9999999999998223 1.2246467991471355e-16 5.961235944682962e-07 0.0 5.961235944682962e-07 0.0 -0.9999999999998223 1.2246467991471355e-16
944798699.6749187 -0.9999999999998243 1.224646799147138e-16 5.928584988539395e-07 0.0 5.928584988539395e-07 0.0 -0.9999999999998243 1.224646799147138e-16
944886221.5553888 -0.9999999999998261 1.2246467991471402e-16 5.896151224440528e-07 0.0 5.896151224440528e-07 0.0 -0.9999999999998261 1.2246467991471402e-16
944973743.435859 -0.999999999999828 1.2246467991471427e-16 5.863932955620038e-07 0.0 5.863932955620038e-07 0.0 -0.999999999999828 1.2246467991471427e-16
945061265.316329 -0.9999999999998299 1.224646799147145e-16 5.831928500520245e-07 0.0 5.831928500520245e-07 0.0 -0.9999999999998299 1.224646799147145e-16
945148787.1967992 -0.9999999999998318 1.224646799147147e-16 5.800136192638383e-07 0.0 5.800136192638383e-07 0.0 -0.9999999999998318 1.224646799147147e-16
945236309.0772693 -0.9999999999998336 1.2246467991471493e-16 5.768554380374864e-07 0.0 5.768554380374864e-07 0.0 -0.9999999999998336 1.2246467991471493e-16
945323830.9577395 -0.9999999999998354 1.2246467991471516e-16 5.737181426882802e-07 0.0 5.737181426882802e-07 0.0 -0.9999999999998354 1.2246467991471516e-16
945411352.8382095 -0.9999999999998371 1.2246467991471538e-16 5.706015709919488e-07 0.0 5.706015709919488e-07 0.0 -0.9999999999998371 1.2246467991471538e-16
945498874.7186797 -0.9999999999998389 1.224646799147156e-16 5.675055621699214e-07 0.0 5.675055621699214e-07 0.0 -0.9999999999998389 1.224646799147156e-16
945586396.5991498 -0.9999999999998407 1.2246467991471582e-16 5.644299568748275e-07 0.0 5.644299568748275e-07 0.0 -0.9999999999998407 1.2246467991471582e-16
945673918.4796199 -0.9999999999998423 1.2246467991471602e-16 5.613745971761278e-07 0.0 5.613745971761278e-07 0.0 -0.9999999999998423 1.2246467991471602e-16
945761440.36009 -0.9999999999998441 1.2246467991471624e-16 5.583393265458778e-07 0.0 5.583393265458778e-07 0.0 -0.9999999999998441 1.2246467991471624e-16
945848962.2405602 -0.9999999999998458 1.2246467991471644e-16 5.553239898447212e-07 0.0 5.553239898447212e-07 0.0 -0.9999999999998458 1.2246467991471644e-16
945936484.1210302 -0.9999999999998475 1.2246467991471663e-16 5.523284333079678e-07 0.0 5.523284333079678e-07 0.0 -0.9999999999998475 1.2246467991471663e-16
946024006.0015004 -0.9999999999998491 1.2246467991471683e-16 5.493525045318676e-07 0.0 5.493525045318676e-07 0.0 -0.9999999999998491 1.2246467991471683e-16
946111527.8819705 -0.9999999999998507 1.2246467991471703e-16 5.463960524600286e-07 0.0 5.463960524600286e-07 0.0 -0.9999999999998507 1.2246467991471703e-16
946199049.7624407 -0.9999999999998523 1.2246467991471723e-16 5.434589273699827e-07 0.0 5.434589273699827e-07 0.0 -0.9999999999998523 1.2246467991471723e-16
946286571.6429107 -0.9999999999998539 1.2246467991471742e-16 5.405409808599059e-07 0.0 5.405409808599059e-07 0.0 -0.9999999999998539 1.2246467991471742e-16
946374093.5233809 -0.9999999999998554 1.2246467991471762e-16 5.376420658354578e-07 0.0 5.376420658354578e-07 0.0 -0.9999999999998554 1.2246467991471762e-16
946461615.403851 -0.999999999999857 1.2246467991471782e-16 5.347620364968209e-07 0.0 5.347620364968209e-07 0.0 -0.999999999999857 1.2246467991471782e-16
946549137.2843211 -0.9999999999998586 1.22464679914718e-16 5.319007483258498e-07 0.0 5.319007483258498e-07 0.0 -0.9999999999998586 1.22464679914718e-16
946636659.1647912 -0.99999999999986 1.2246467991471819e-16 5.290580580733302e-07 0.0 5.290580580733302e-07 0.0 -0.99999999999986 1.2246467991471819e-16
946724181.0452614 -0.9999999999998616 1.2246467991471836e-16 5.262338237464642e-07 0.0 5.262338237464642e-07 0.0 -0.9999999999998616 1.2246467991471836e-16
946811702.9257314 -0.999999999999863 1.2246467991471853e-16 5.234279045964043e-07 0.0 5.234279045964043e-07 0.0 -0.999999999999863 1.2246467991471853e-16
946899224.8062016 -0.9999999999998644 1.2246467991471873e-16 5.206401611059716e-07 0.0 5.206401611059716e-07 0.0 -0.9999999999998644 1.2246467991471873e-16
946986746.6866717 -0.9999999999998659 1.224646799147189e-16 5.178704549775186e-07 0.0 5.178704549775186e-07 0.0 -0.9999999999998659 1.224646799147189e-16
947074268.5671418 -0.9999999999998673 1.2246467991471908e-16 5.151186491208884e-07 0.0 5.151186491208884e-07 0.0 -0.9999999999998673 1.2246467991471908e-16
947161790.4476119 -0.9999999999998687 1.2246467991471925e-16 5.123846076415229e-07 0.0 5.123846076415229e-07 0.0 -0.9999999999998687 1.2246467991471925e-16
947249312.3280821 -0.9999999999998701 1.2246467991471942e-16 5.096681958287188e-07 0.0 5.096681958287188e-07 0.0 -0.9999999999998701 1.2246467991471942e-16
947336834.2085522 -0.9999999999998714 1.2246467991471957e-16 5.069692801439806e-07 0.0 5.069692801439806e-07 0.0 -0.9999999999998714 1.2246467991471957e-16
947424356.0890223 -0.9999999999998728 1.2246467991471974e-16 5.042877282095376e-07 0.0 5.042877282095376e-07 0.0 -0.9999999999998728 1.2246467991471974e-16
947511877.9694924 -0.9999999999998742 1.2246467991471991e-16 5.016234087969296e-07 0.0 5.016234087969296e-07 0.0 -0.9999999999998742 1.2246467991471991e-16
947599399.8499626 -0.9999999999998754 1.2246467991472006e-16 4.989761918157992e-07 0.0 4.989761918157992e-07 0.0 -0.9999999999998754 1.2246467991472006e-16
947686921.7304326 -0.9999999999998768 1.2246467991472023e-16 4.963459483027232e-07 0.0 4.963459483027232e-07 0.0 -0.9999999999998768 1.2246467991472023e-16
947774443.6109028 -0.9999999999998781 1.2246467991472038e-16 4.937325504102099e-07 0.0 4.937325504102099e-07 0.0 -0.9999999999998781 1.2246467991472038e-16
947861965.491373 -0.9999999999998793 1.2246467991472053e-16 4.911358713958292e-07 0.0 4.911358713958292e-07 0.0 -0.9999999999998793 1.2246467991472053e-16
947949487.371843 -0.9999999999998807 1.224646799147207e-16 4.885557856114239e-07 0.0 4.885557856114239e-07 0.0 -0.9999999999998807 1.224646799147207e-16
948037009.2523131 -0.9999999999998819 1.2246467991472085e-16 4.859921684924378e-07 0.0 4.859921684924378e-07 0.0 -0.9999999999998819 1.2246467991472085e-16
948124531.1327833 -0.9999999999998831 1.22464679914721e-16 4.834448965474164e-07 0.0 4.834448965474164e-07 0.0 -0.9999999999998831 1.22464679914721e-16
948212053.0132535 -0.9999999999998843 1.2246467991472115e-16 4.809138473475405e-07 0.0 4.809138473475405e-07 0.0 -0.9999999999998843 1.2246467991472115e-16
948299574.8937235 -0.9999999999998855 1.224646799147213e-16 4.78398899516345e-07 0.0 4.78398899516345e-07 0.0 -0.9999999999998855 1.224646799147213e-16
948387096.7741936 -0.9999999999998868 1.2246467991472144e-16 4.758999327194862e-07 0.0 4.758999327194862e-07 0.0 -0.9999999999998868 1.2246467991472144e-16
948474618.6546638 -0.9999999999998879 1.224646799147216e-16 4.7341682765468346e-07 0.0 4.7341682765468346e-07 0.0 -0.9999999999998879 1.224646799147216e-16
948562140.5351338 -0.9999999999998891 1.2246467991472174e-16 4.7094946604171133e-07 0.0 4.7094946604171133e-07 0.0 -0.9999999999998891 1.2246467991472174e-16
948649662.4156039 -0.9999999999998902 1.2246467991472189e-16 4.684977306125282e-07 0.0 4.684977306125282e-07 0.0 -0.9999999999998902 1.2246467991472189e-16
948737184.296074 -0.9999999999998914 1.2246467991472203e-16 4.66061505101517e-07 0.0 4.66061505101517e-07 0.0 -0.9999999999998914 1.2246467991472203e-16
948824706.1765442 -0.9999999999998925 1.2246467991472216e-16 4.6364067423581487e-07 0.0 4.6364067423581487e-07 0.0 -0.9999999999998925 1.2246467991472216e-16
948912228.0570142 -0.9999999999998936 1.224646799147223e-16 4.6123512372574795e-07 0.0 4.6123512372574795e-07 0.0 -0.9999999999998936 1.224646799147223e-16
948999749.9374844 -0.9999999999998948 1.2246467991472243e-16 4.5884474025537947e-07 0.0 4.5884474025537947e-07 0.0 -0.9999999999998948 1.2246467991472243e-16
949087271.8179545 -0.9999999999998958 1.2246467991472255e-16 4.5646941147315365e-07 0.0 4.5646941147315365e-07 0.0 -0.9999999999998958 1.2246467991472255e-16
949174793.6984246 -0.9999999999998969 1.224646799147227e-16 4.541090259826334e-07 0.0 4.541090259826334e-07 0.0 -0.9999999999998969 1.224646799147227e-16
949262315.5788947 -0.999999999999898 1.2246467991472282e-16 4.517634733333368e-07 0.0 4.517634733333368e-07 0.0 -0.999999999999898 1.2246467991472282e-16
949349837.4593649 -0.999999999999899 1.2246467991472295e-16 4.4943264401169655e-07 0.0 4.4943264401169655e-07 0.0 -0.999999999999899 1.2246467991472295e-16
949437359.3398349 -0.9999999999999 1.2246467991472307e-16 4.471164294320883e-07 0.0 4.471164294320883e-07 0.0 -0.9999999999999 1.2246467991472307e-16
949524881.2203051 -0.9999999999999011 1.2246467991472322e-16 4.4481472192793756e-07 0.0 4.4481472192793756e-07 0.0 -0.9999999999999011 1.2246467991472322e-16
949612403.1007752 -0.9999999999999021 1.2246467991472334e-16 4.4252741474298424e-07 0.0 4.4252741474298424e-07 0.0 -0.9999999999999021 1.2246467991472334e-16
949699924.9812453 -0.9999999999999031 1.2246467991472346e-16 4.402544020225847e-07 0.0 4.402544020225847e-07 0.0 -0.9999999999999031 1.2246467991472346e-16
949787446.8617154 -0.9999999999999041 1.2246467991472356e-16 4.3799557880510564e-07 0.0 4.3799557880510564e-07 0.0 -0.9999999999999041 1.2246467991472356e-16
949874968.7421856 -0.9999999999999051 1.2246467991472369e-16 4.3575084101346264e-07 0.0 4.3575084101346264e-07 0.0 -0.9999999999999051 1.2246467991472369e-16
949962490.6226557 -0.999999999999906 1.224646799147238e-16 4.3352008544668846e-07 0.0 4.3352008544668846e-07 0.0 -0.999999999999906 1.224646799147238e-16
950050012.5031258 -0.999999999999907 1.2246467991472393e-16 4.313032097716131e-07 0.0 4.313032097716131e-07 0.0 -0.999999999999907 1.2246467991472393e-16
950137534.383596 -0.999999999999908 1.2246467991472405e-16 4.291001125146378e-07 0.0 4.291001125146378e-07 0.0 -0.999999999999908 1.2246467991472405e-16
950225056.2640661 -0.9999999999999089 1.2246467991472415e-16 4.2691069305360387e-07 0.0 4.2691069305360387e-07 0.0 -0.9999999999999089 1.2246467991472415e-16
950312578.1445361 -0.9999999999999097 1.2246467991472428e-16 4.2473485160972014e-07 0.0 4.2473485160972014e-07 0.0 -0.9999999999999097 1.2246467991472428e-16
950400100.0250063 -0.9999999999999107 1.224646799147244e-16 4.2257248923958235e-07 0.0 4.2257248923958235e-07 0.0 -0.9999999999999107 1.224646799147244e-16
950487621.9054765 -0.9999999999999116 1.224646799147245e-16 4.2042350782730806e-07 0.0 4.2042350782730806e-07 0.0 -0.9999999999999116 1.224646799147245e-16
950575143.7859465 -0.9999999999999125 1.224646799147246e-16 4.182878100767128e-07 0.0 4.182878100767128e-07 0.0 -0.9999999999999125 1.224646799147246e-16
950662665.6664165 -0.9999999999999134 1.2246467991472472e-16 4.1616529950358644e-07 0.0 4.1616529950358644e-07 0.0 -0.9999999999999134 1.2246467991472472e-16
950750187.5468867 -0.9999999999999143 1.2246467991472482e-16 4.1405588042805146e-07 0.0 4.1405588042805146e-07 0.0 -0.9999999999999143 1.2246467991472482e-16
950837709.4273568 -0.9999999999999151 1.2246467991472492e-16 4.119594579670097e-07 0.0 4.119594579670097e-07 0.0 -0.9999999999999151 1.2246467991472492e-16
950925231.3078269 -0.999999999999916 1.2246467991472502e-16 4.098759380266501e-07 0.0 4.098759380266501e-07 0.0 -0.999999999999916 1.2246467991472502e-16
951012753.188297 -0.9999999999999168 1.2246467991472514e-16 4.0780522729503184e-07 0.0 4.0780522729503184e-07 0.0 -0.9999999999999168 1.2246467991472514e-16
951100275.0687672 -0.9999999999999176 1.2246467991472524e-16 4.057472332347733e-07 0.0 4.057472332347733e-07 0.0 -0.9999999999999176 1.2246467991472524e-16
951187796.9492372 -0.9999999999999185 1.2246467991472534e-16 4.0370186407579847e-07 0.0 4.0370186407579847e-07 0.0 -0.9999999999999185 1.2246467991472534e-16
951275318.8297074 -0.9999999999999193 1.2246467991472544e-16 4.016690288081418e-07 0.0 4.016690288081418e-07 0.0 -0.9999999999999193 1.2246467991472544e-16
951362840.7101775 -0.9999999999999201 1.2246467991472553e-16 3.99648637174874e-07 0.0 3.99648637174874e-07 0.0 -0.9999999999999201 1.2246467991472553e-16
951450362.5906476 -0.999999999999921 1.2246467991472563e-16 3.976405996650544e-07 0.0 3.976405996650544e-07 0.0 -0.999999999999921 1.2246467991472563e-16
951537884.4711177 -0.9999999999999217 1.2246467991472573e-16 3.956448275067753e-07 0.0 3.956448275067753e-07 0.0 -0.9999999999999217 1.2246467991472573e-16
951625406.3515879 -0.9999999999999225 1.2246467991472583e-16 3.9366123266029216e-07 0.0 3.9366123266029216e-07 0.0 -0.9999999999999225 1.2246467991472583e-16
951712928.232058 -0.9999999999999233 1.2246467991472593e-16 3.9168972781120356e-07 0.0 3.9168972781120356e-07 0.0 -0.9999999999999233 1.2246467991472593e-16
951800450.1125281 -0.9999999999999241 1.2246467991472603e-16 3.89730226363714e-07 0.0 3.89730226363714e-07 0.0 -0.9999999999999241 1.2246467991472603e-16
951887971.9929982 -0.9999999999999248 1.2246467991472613e-16 3.877826424339535e-07 0.0 3.877826424339535e-07 0.0 -0.9999999999999248 1.2246467991472613e-16
951975493.8734684 -0.9999999999999255 1.224646799147262e-16 3.858468908433896e-07 0.0 3.858468908433896e-07 0.0 -0.9999999999999255 1.224646799147262e-16
952063015.7539384 -0.9999999999999263 1.224646799147263e-16 3.839228871122836e-07 0.0 3.839228871122836e-07 0.0 -0.9999999999999263 1.224646799147263e-16
952150537.6344086 -0.9999999999999271 1.224646799147264e-16 3.8201054745322043e-07 0.0 3.8201054745322043e-07 0.0 -0.9999999999999271 1.224646799147264e-16
952238059.5148787 -0.9999999999999277 1.2246467991472647e-16 3.801097887647235e-07 0.0 3.801097887647235e-07 0.0 -0.9999999999999277 1.2246467991472647e-16
952325581.3953488 -0.9999999999999285 1.2246467991472657e-16 3.7822052862490906e-07 0.0 3.7822052862490906e-07 0.0 -0.9999999999999285 1.2246467991472657e-16
952413103.275819 -0.9999999999999292 1.2246467991472664e-16 3.7634268528521404e-07 0.0 3.7634268528521404e-07 0.0 -0.9999999999999292 1.2246467991472664e-16
952500625.1562891 -0.9999999999999298 1.2246467991472672e-16 3.7447617766419305e-07 0.0 3.7447617766419305e-07 0.0 -0.9999999999999298 1.2246467991472672e-16
952588147.0367593 -0.9999999999999305 1.2246467991472682e-16 3.726209253413905e-07 0.0 3.726209253413905e-07 0.0 -0.9999999999999305 1.2246467991472682e-16
952675668.9172293 -0.9999999999999313 1.2246467991472691e-16 3.707768485512494e-07 0.0 3.707768485512494e-07 0.0 -0.9999999999999313 1.2246467991472691e-16
952763190.7976995 -0.9999999999999319 1.22464679914727e-16 3.689438681770916e-07 0.0 3.689438681770916e-07 0.0 -0.9999999999999319 1.22464679914727e-16
952850712.6781696 -0.9999999999999326 1.2246467991472706e-16 3.6712190574517136e-07 0.0 3.6712190574517136e-07 0.0 -0.9999999999999326 1.2246467991472706e-16
952938234.5586396 -0.9999999999999333 1.2246467991472716e-16 3.6531088341878633e-07 0.0 3.6531088341878633e-07 0.0 -0.9999999999999333 1.2246467991472716e-16
953025756.4391098 -0.9999999999999339 1.2246467991472723e-16 3.635107239924267e-07 0.0 3.635107239924267e-07 0.0 -0.9999999999999339 1.2246467991472723e-16
953113278.31958 -0.9999999999999345 1.224646799147273e-16 3.617213508860196e-07 0.0 3.617213508860196e-07 0.0 -0.9999999999999345 1.224646799147273e-16
953200800.20005 -0.9999999999999352 1.2246467991472738e-16 3.5994268813920737e-07 0.0 3.5994268813920737e-07 0.0 -0.9999999999999352 1.2246467991472738e-16
953288322.0805202 -0.9999999999999358 1.2246467991472746e-16 3.5817466040568013e-07 0.0 3.5817466040568013e-07 0.0 -0.9999999999999358 1.2246467991472746e-16
953375843.9609903 -0.9999999999999365 1.2246467991472756e-16 3.564171929475862e-07 0.0 3.564171929475862e-07 0.0 -0.9999999999999365 1.2246467991472756e-16
953463365.8414605 -0.999999999999937 1.224646799147276e-16 3.5467021162999305e-07 0.0 3.5467021162999305e-07 0.0 -0.999999999999937 1.224646799147276e-16
953550887.7219305 -0.9999999999999377 1.224646799147277e-16 3.529336429153967e-07 0.0 3.529336429153967e-07 0.0 -0.9999999999999377 1.224646799147277e-16
953638409.6024007 -0.9999999999999383 1.2246467991472775e-16 3.5120741385827886e-07 0.0 3.5120741385827886e-07 0.0 -0.9999999999999383 1.2246467991472775e-16
953725931.4828708 -0.9999999999999389 1.2246467991472785e-16 3.494914520997447e-07 0.0 3.494914520997447e-07 0.0 -0.9999999999999389 1.2246467991472785e-16
953813453.3633409 -0.9999999999999395 1.224646799147279e-16 3.477856858622058e-07 0.0 3.477856858622058e-07 0.0 -0.9999999999999395 1.224646799147279e-16
953900975.243811 -0.99999999999994 1.2246467991472797e-16 3.460900439440875e-07 0.0 3.460900439440875e-07 0.0 -0.99999999999994 1.2246467991472797e-16
953988497.1242812 -0.9999999999999407 1.2246467991472805e-16 3.4440445571464207e-07 0.0 3.4440445571464207e-07 0.0 -0.9999999999999407 1.2246467991472805e-16
954076019.0047512 -0.9999999999999413 1.2246467991472812e-16 3.4272885110877477e-07 0.0 3.4272885110877477e-07 0.0 -0.9999999999999413 1.2246467991472812e-16
954163540.8852214 -0.9999999999999418 1.224646799147282e-16 3.4106316062192175e-07 0.0 3.4106316062192175e-07 0.0 -0.9999999999999418 1.224646799147282e-16
954251062.7656915 -0.9999999999999424 1.2246467991472827e-16 3.394073153050074e-07 0.0 3.394073153050074e-07 0.0 -0.9999999999999424 1.2246467991472827e-16
954338584.6461616 -0.9999999999999429 1.2246467991472834e-16 3.377612467594391e-07 0.0 3.377612467594391e-07 0.0 -0.9999999999999429 1.2246467991472834e-16
954426106.5266317 -0.9999999999999435 1.224646799147284e-16 3.3612488713212095e-07 0.0 3.3612488713212095e-07 0.0 -0.9999999999999435 1.224646799147284e-16
954513628.4071019 -0.999999999999944 1.2246467991472847e-16 3.344981691105879e-07 0.0 3.344981691105879e-07 0.0 -0.999999999999944 1.2246467991472847e-16
954601150.287572 -0.9999999999999446 1.2246467991472854e-16 3.328810259181054e-07 0.0 3.328810259181054e-07 0.0 -0.9999999999999446 1.2246467991472854e-16
954688672.1680421 -0.9999999999999452 1.2246467991472862e-16 3.3127339130888914e-07 0.0 3.3127339130888914e-07 0.0 -0.9999999999999452 1.2246467991472862e-16
954776194.0485122 -0.9999999999999456 1.2246467991472866e-16 3.296751995633226e-07 0.0 3.296751995633226e-07 0.0 -0.9999999999999456 1.2246467991472866e-16
954863715.9289824 -0.9999999999999462 1.2246467991472874e-16 3.280863854832561e-07 0.0 3.280863854832561e-07 0.0 -0.9999999999999462 1.2246467991472874e-16
954951237.8094524 -0.9999999999999467 1.224646799147288e-16 3.2650688438733515e-07 0.0 3.2650688438733515e-07 0.0 -0.9999999999999467 1.224646799147288e-16
955038759.6899226 -0.9999999999999472 1.2246467991472884e-16 3.249366321063682e-07 0.0 3.249366321063682e-07 0.0 -0.9999999999999472 1.2246467991472884e-16
955126281.5703927 -0.9999999999999477 1.224646799147289e-16 3.2337556497876455e-07 0.0 3.2337556497876455e-07 0.0 -0.9999999999999477 1.224646799147289e-16
955213803.4508628 -0.9999999999999482 1.2246467991472896e-16 3.21823619846009e-07 0.0 3.21823619846009e-07 0.0 -0.9999999999999482 1.2246467991472896e-16
955301325.3313329 -0.9999999999999487 1.2246467991472903e-16 3.2028073404814977e-07 0.0 3.2028073404814977e-07 0.0 -0.9999999999999487 1.2246467991472903e-16
955388847.2118031 -0.9999999999999492 1.2246467991472908e-16 3.187468454193969e-07 0.0 3.187468454193969e-07 0.0 -0.9999999999999492 1.2246467991472908e-16
955476369.0922732 -0.9999999999999497 1.2246467991472916e-16 3.1722189228368744e-07 0.0 3.1722189228368744e-07 0.0 -0.9999999999999497 1.2246467991472916e-16
955563890.9727432 -0.9999999999999502 1.224646799147292e-16 3.1570581345036786e-07 0.0 3.1570581345036786e-07 0.0 -0.9999999999999502 1.224646799147292e-16
955651412.8532133 -0.9999999999999506 1.2246467991472928e-16 3.141985482098524e-07 0.0 3.141985482098524e-07 0.0 -0.9999999999999506 1.2246467991472928e-16
955738934.7336835 -0.999999999999951 1.2246467991472933e-16 3.127000363293781e-07 0.0 3.127000363293781e-07 0.0 -0.999999999999951 1.2246467991472933e-16
955826456.6141535 -0.9999999999999516 1.224646799147294e-16 3.112102180487737e-07 0.0 3.112102180487737e-07 0.0 -0.9999999999999516 1.224646799147294e-16
955913978.4946237 -0.999999999999952 1.2246467991472945e-16 3.0972903407626695e-07 0.0 3.0972903407626695e-07 0.0 -0.999999999999952 1.2246467991472945e-16
956001500.3750938 -0.9999999999999525 1.224646799147295e-16 3.082564255843627e-07 0.0 3.082564255843627e-07 0.0 -0.9999999999999525 1.224646799147295e-16
956089022.2555639 -0.9999999999999529 1.2246467991472955e-16 3.0679233420571943e-07 0.0 3.0679233420571943e-07 0.0 -0.9999999999999529 1.2246467991472955e-16
956176544.136034 -0.9999999999999534 1.224646799147296e-16 3.053367020290995e-07 0.0 3.053367020290995e-07 0.0 -0.9999999999999534 1.224646799147296e-16
956264066.0165042 -0.9999999999999538 1.2246467991472968e-16 3.038894715953527e-07 0.0 3.038894715953527e-07 0.0 -0.9999999999999538 1.2246467991472968e-16
956351587.8969743 -0.9999999999999543 1.2246467991472972e-16 3.0245058589342496e-07 0.0 3.0245058589342496e-07 0.0 -0.9999999999999543 1.2246467991472972e-16
956439109.7774444 -0.9999999999999547 1.2246467991472977e-16 3.010199883564167e-07 0.0 3.010199883564167e-07 0.0 -0.9999999999999547 1.2246467991472977e-16
956526631.6579145 -0.9999999999999551 1.2246467991472982e-16 2.995976228576871e-07 0.0 2.995976228576871e-07 0.0 -0.9999999999999551 1.2246467991472982e-16
956614153.5383847 -0.9999999999999555 1.2246467991472987e-16 2.98183433706975e-07 0.0 2.98183433706975e-07 0.0 -0.9999999999999555 1.2246467991472987e-16
956701675.4188547 -0.9999999999999559 1.2246467991472992e-16 2.967773656465887e-07 0.0 2.967773656465887e-07 0.0 -0.9999999999999559 1.2246467991472992e-16
956789197.2993249 -0.9999999999999564 1.2246467991472997e-16 2.9537936384759396e-07 0.0 2.9537936384759396e-07 0.0 -0.9999999999999564 1.2246467991472997e-16
956876719.179795 -0.9999999999999568 1.2246467991473002e-16 2.9398937390608147e-07 0.0 2.9398937390608147e-07 0.0 -0.9999999999999568 1.2246467991473002e-16
956964241.0602651 -0.9999999999999571 1.2246467991473007e-16 2.9260734183943375e-07 0.0 2.9260734183943375e-07 0.0 -0.9999999999999571 1.2246467991473007e-16
957051762.9407352 -0.9999999999999576 1.2246467991473012e-16 2.9123321408264803e-07 0.0 2.9123321408264803e-07 0.0 -0.9999999999999576 1.2246467991473012e-16
957139284.8212053 -0.9999999999999579 1.2246467991473017e-16 2.898669374847029e-07 0.0 2.898669374847029e-07 0.0 -0.9999999999999579 1.2246467991473017e-16
957226806.7016754 -0.9999999999999584 1.2246467991473022e-16 2.8850845930492763e-07 0.0 2.8850845930492763e-07 0.0 -0.9999999999999584 1.2246467991473022e-16
957314328.5821455 -0.9999999999999587 1.2246467991473027e-16 2.8715772720945076e-07 0.0 2.8715772720945076e-07 0.0 -0.9999999999999587 1.2246467991473027e-16
957401850.4626156 -0.9999999999999591 1.2246467991473032e-16 2.85814689267635e-07 0.0 2.85814689267635e-07 0.0 -0.9999999999999591 1.2246467991473032e-16
957489372.3430858 -0.9999999999999595 1.2246467991473037e-16 2.844792939485965e-07 0.0 2.844792939485965e-07 0.0 -0.9999999999999595 1.2246467991473037e-16
957576894.2235558 -0.9999999999999599 1.2246467991473041e-16 2.8315149011771767e-07 0.0 2.8315149011771767e-07 0.0 -0.9999999999999599 1.2246467991473041e-16
957664416.104026 -0.9999999999999603 1.2246467991473046e-16 2.818312270332074e-07 0.0 2.818312270332074e-07 0.0 -0.9999999999999603 1.2246467991473046e-16
957751937.9844961 -0.9999999999999606 1.224646799147305e-16 2.8051845434270675e-07 0.0 2.8051845434270675e-07 0.0 -0.9999999999999606 1.224646799147305e-16
957839459.8649663 -0.999999999999961 1.2246467991473054e-16 2.792131220799126e-07 0.0 2.792131220799126e-07 0.0 -0.999999999999961 1.2246467991473054e-16
957926981.7454363 -0.9999999999999614 1.2246467991473059e-16 2.779151806612334e-07 0.0 2.779151806612334e-07 0.0 -0.9999999999999614 1.2246467991473059e-16
958014503.6259065 -0.9999999999999617 1.2246467991473064e-16 2.7662458088248434e-07 0.0 2.7662458088248434e-07 0.0 -0.9999999999999617 1.2246467991473064e-16
958102025.5063766 -0.999999999999962 1.2246467991473066e-16 2.753412739156149e-07 0.0 2.753412739156149e-07 0.0 -0.999999999999962 1.2246467991473066e-16
958189547.3868467 -0.9999999999999624 1.224646799147307e-16 2.740652113054645e-07 0.0 2.740652113054645e-07 0.0 -0.9999999999999624 1.224646799147307e-16
958277069.2673168 -0.9999999999999628 1.2246467991473076e-16 2.7279634496653795e-07 0.0 2.7279634496653795e-07 0.0 -0.9999999999999628 1.2246467991473076e-16
958364591.147787 -0.9999999999999631 1.224646799147308e-16 2.715346271798426e-07 0.0 2.715346271798426e-07 0.0 -0.9999999999999631 1.224646799147308e-16
958452113.028257 -0.9999999999999635 1.2246467991473086e-16 2.7028001058972355e-07 0.0 2.7028001058972355e-07 0.0 -0.9999999999999635 1.2246467991473086e-16
958539634.9087272 -0.9999999999999638 1.2246467991473088e-16 2.690324482007377e-07 0.0 2.690324482007377e-07 0.0 -0.9999999999999638 1.2246467991473088e-16
958627156.7891973 -0.9999999999999641 1.2246467991473093e-16 2.677918933745792e-07 0.0 2.677918933745792e-07 0.0 -0.9999999999999641 1.2246467991473093e-16
958714678.6696674 -0.9999999999999645 1.2246467991473098e-16 2.665582998270053e-07 0.0 2.665582998270053e-07 0.0 -0.9999999999999645 1.2246467991473098e-16
958802200.5501375 -0.9999999999999648 1.22464679914731e-16 2.653316216248007e-07 0.0 2.653316216248007e-07 0.0 -0.9999999999999648 1.22464679914731e-16
958889722.4306077 -0.9999999999999651 1.2246467991473106e-16 2.641118131827792e-07 0.0 2.641118131827792e-07 0.0 -0.9999999999999651 1.2246467991473106e-16
958977244.3110778 -0.9999999999999654 1.2246467991473108e-16 2.6289882926081356e-07 0.0 2.6289882926081356e-07 0.0 -0.9999999999999654 1.2246467991473108e-16
959064766.1915479 -0.9999999999999657 1.2246467991473113e-16 2.6169262496087836e-07 0.0 2.6169262496087836e-07 0.0 -0.9999999999999657 1.2246467991473113e-16
959152288.072018 -0.999999999999966 1.2246467991473115e-16 2.6049315572413147e-07 0.0 2.6049315572413147e-07 0.0 -0.999999999999966 1.2246467991473115e-16
959239809.9524882 -0.9999999999999664 1.224646799147312e-16 2.5930037732803266e-07 0.0 2.5930037732803266e-07 0.0 -0.9999999999999664 1.224646799147312e-16
959327331.8329582 -0.9999999999999667 1.2246467991473125e-16 2.5811424588347047e-07 0.0 2.5811424588347047e-07 0.0 -0.9999999999999667 1.2246467991473125e-16
959414853.7134284 -0.9999999999999669 1.2246467991473128e-16 2.5693471783192386e-07 0.0 2.5693471783192386e-07 0.0 -0.9999999999999669 1.2246467991473128e-16
959502375.5938985 -0.9999999999999672 1.224646799147313e-16 2.5576174994266334e-07 0.0 2.5576174994266334e-07 0.0 -0.9999999999999672 1.224646799147313e-16
959589897.4743686 -0.9999999999999676 1.2246467991473135e-16 2.545952993099612e-07 0.0 2.545952993099612e-07 0.0 -0.9999999999999676 1.2246467991473135e-16
959677419.3548387 -0.9999999999999678 1.2246467991473138e-16 2.534353233503267e-07 0.0 2.534353233503267e-07 0.0 -0.9999999999999678 1.2246467991473138e-16
959764941.2353089 -0.9999999999999681 1.2246467991473143e-16 2.5228177979978977e-07 0.0 2.5228177979978977e-07 0.0 -0.9999999999999681 1.2246467991473143e-16
959852463.115779 -0.9999999999999685 1.2246467991473145e-16 2.5113462671118617e-07 0.0 2.5113462671118617e-07 0.0 -0.9999999999999685 1.2246467991473145e-16
959939984.9962491 -0.9999999999999687 1.2246467991473148e-16 2.4999382245148494e-07 0.0 2.4999382245148494e-07 0.0 -0.9999999999999687 1.2246467991473148e-16
960027506.8767192 -0.999999999999969 1.2246467991473152e-16 2.4885932569911935e-07 0.0 2.4885932569911935e-07 0.0 -0.999999999999969 1.2246467991473152e-16
960115028.7571894 -0.9999999999999692 1.2246467991473155e-16 2.4773109544138046e-07 0.0 2.4773109544138046e-07 0.0 -0.9999999999999692 1.2246467991473155e-16
960202550.6376594 -0.9999999999999696 1.224646799147316e-16 2.466090909717894e-07 0.0 2.466090909717894e-07 0.0 -0.9999999999999696 1.224646799147316e-16
960290072.5181296 -0.9999999999999698 1.2246467991473162e-16 2.454932718875299e-07 0.0 2.454932718875299e-07 0.0 -0.9999999999999698 1.2246467991473162e-16
960377594.3985997 -0.9999999999999701 1.2246467991473167e-16 2.443835980868911e-07 0.0 2.443835980868911e-07 0.0 -0.9999999999999701 1.2246467991473167e-16
960465116.2790698 -0.9999999999999704 1.224646799147317e-16 2.432800297667361e-07 0.0 2.432800297667361e-07 0.0 -0.9999999999999704 1.224646799147317e-16
960552638.1595399 -0.9999999999999707 1.2246467991473172e-16 2.421825274199851e-07 0.0 2.421825274199851e-07 0.0 -0.9999999999999707 1.2246467991473172e-16
960640160.0400101 -0.9999999999999709 1.2246467991473175e-16 2.4109105183313906e-07 0.0 2.4109105183313906e-07 0.0 -0.9999999999999709 1.2246467991473175e-16
960727681.9204803 -0.9999999999999711 1.224646799147318e-16 2.400055640838159e-07 0.0 2.400055640838159e-07 0.0 -0.9999999999999711 1.224646799147318e-16
960815203.8009503 -0.9999999999999715 1.2246467991473182e-16 2.3892602553831577e-07 0.0 2.3892602553831577e-07 0.0 -0.9999999999999715 1.2246467991473182e-16
960902725.6814204 -0.9999999999999717 1.2246467991473184e-16 2.3785239784918808e-07 0.0 2.3785239784918808e-07 0.0 -0.9999999999999717 1.2246467991473184e-16
960990247.5618906 -0.9999999999999719 1.2246467991473187e-16 2.36784642952864e-07 0.0 2.36784642952864e-07 0.0 -0.9999999999999719 1.2246467991473187e-16
961077769.4423606 -0.9999999999999722 1.2246467991473192e-16 2.357227230672631e-07 0.0 2.357227230672631e-07 0.0 -0.9999999999999722 1.2246467991473192e-16
961165291.3228308 -0.9999999999999725 1.2246467991473194e-16 2.3466660068945377e-07 0.0 2.3466660068945377e-07 0.0 -0.9999999999999725 1.2246467991473194e-16
961252813.203301 -0.9999999999999727 1.2246467991473197e-16 2.3361623859332719e-07 0.0 2.3361623859332719e-07 0.0 -0.9999999999999727 1.2246467991473197e-16
961340335.083771 -0.9999999999999729 1.22464679914732e-16 2.325715998272892e-07 0.0 2.325715998272892e-07 0.0 -0.9999999999999729 1.22464679914732e-16
961427856.9642411 -0.9999999999999731 1.2246467991473204e-16 2.315326477119728e-07 0.0 2.315326477119728e-07 0.0 -0.9999999999999731 1.2246467991473204e-16
961515378.8447113 -0.9999999999999734 1.2246467991473207e-16 2.304993458379776e-07 0.0 2.304993458379776e-07 0.0 -0.9999999999999734 1.2246467991473207e-16
961602900.7251813 -0.9999999999999737 1.224646799147321e-16 2.2947165806363386e-07 0.0 2.2947165806363386e-07 0.0 -0.9999999999999737 1.224646799147321e-16
961690422.6056515 -0.9999999999999739 1.2246467991473212e-16 2.2844954851276724e-07 0.0 2.2844954851276724e-07 0.0 -0.9999999999999739 1.2246467991473212e-16
961777944.4861217 -0.9999999999999741 1.2246467991473214e-16 2.2743298157251024e-07 0.0 2.2743298157251024e-07 0.0 -0.9999999999999741 1.2246467991473214e-16
961865466.3665918 -0.9999999999999744 1.224646799147322e-16 2.2642192189111584e-07 0.0 2.2642192189111584e-07 0.0 -0.9999999999999744 1.224646799147322e-16
961952988.2470618 -0.9999999999999746 1.2246467991473221e-16 2.2541633437579946e-07 0.0 2.2541633437579946e-07 0.0 -0.9999999999999746 1.2246467991473221e-16
962040510.1275319 -0.9999999999999748 1.2246467991473224e-16 2.2441618419059143e-07 0.0 2.2441618419059143e-07 0.0 -0.9999999999999748 1.2246467991473224e-16
962128032.008002 -0.999999999999975 1.2246467991473226e-16 2.2342143675422441e-07 0.0 2.2342143675422441e-07 0.0 -0.999999999999975 1.2246467991473226e-16
962215553.8884721 -0.9999999999999752 1.224646799147323e-16 2.224320577380309e-07 0.0 2.224320577380309e-07 0.0 -0.9999999999999752 1.224646799147323e-16
962303075.7689422 -0.9999999999999755 1.2246467991473231e-16 2.214480130638552e-07 0.0 2.214480130638552e-07 0.0 -0.9999999999999755 1.2246467991473231e-16
962390597.6494124 -0.9999999999999757 1.2246467991473234e-16 2.2046926890199435e-07 0.0 2.2046926890199435e-07 0.0 -0.9999999999999757 1.2246467991473234e-16
962478119.5298826 -0.9999999999999759 1.2246467991473236e-16 2.1949579166915844e-07 0.0 2.1949579166915844e-07 0.0 -0.9999999999999759 1.2246467991473236e-16
962565641.4103526 -0.9999999999999761 1.2246467991473239e-16 2.1852754802643506e-07 0.0 2.1852754802643506e-07 0.0 -0.9999999999999761 1.2246467991473239e-16
962653163.2908227 -0.9999999999999764 1.2246467991473244e-16 2.1756450487728553e-07 0.0 2.1756450487728553e-07 0.0 -0.9999999999999764 1.2246467991473244e-16
962740685.1712929 -0.9999999999999765 1.2246467991473244e-16 2.1660662936556587e-07 0.0 2.1660662936556587e-07 0.0 -0.9999999999999765 1.2246467991473244e-16
962828207.0517629 -0.9999999999999767 1.2246467991473246e-16 2.1565388887354674e-07 0.0 2.1565388887354674e-07 0.0 -0.9999999999999767 1.2246467991473246e-16
962915728.9322331 -0.9999999999999769 1.2246467991473249e-16 2.147062510199595e-07 0.0 2.147062510199595e-07 0.0 -0.9999999999999769 1.2246467991473249e-16
963003250.8127033 -0.9999999999999771 1.224646799147325e-16 2.137636836580675e-07 0.0 2.137636836580675e-07 0.0 -0.9999999999999771 1.224646799147325e-16
963090772.6931733 -0.9999999999999774 1.2246467991473254e-16 2.1282615487374866e-07 0.0 2.1282615487374866e-07 0.0 -0.9999999999999774 1.2246467991473254e-16
963178294.5736434 -0.9999999999999776 1.2246467991473258e-16 2.1189363298359255e-07 0.0 2.1189363298359255e-07 0.0 -0.9999999999999776 1.2246467991473258e-16
963265816.4541136 -0.9999999999999777 1.2246467991473258e-16 2.1096608653301984e-07 0.0 2.1096608653301984e-07 0.0 -0.9999999999999777 1.2246467991473258e-16
963353338.3345836 -0.9999999999999779 1.224646799147326e-16 2.1004348429442032e-07 0.0 2.1004348429442032e-07 0.0 -0.9999999999999779 1.224646799147326e-16
963440860.2150538 -0.9999999999999781 1.2246467991473263e-16 2.0912579526529656e-07 0.0 2.0912579526529656e-07 0.0 -0.9999999999999781 1.2246467991473263e-16
963528382.095524 -0.9999999999999784 1.2246467991473266e-16 2.0821298866643909e-07 0.0 2.0821298866643909e-07 0.0 -0.9999999999999784 1.2246467991473266e-16
963615903.975994 -0.9999999999999785 1.2246467991473268e-16 2.0730503394011449e-07 0.0 2.0730503394011449e-07 0.0 -0.9999999999999785 1.2246467991473268e-16
963703425.856464 -0.9999999999999787 1.224646799147327e-16 2.0640190074825554e-07 0.0 2.0640190074825554e-07 0.0 -0.9999999999999787 1.224646799147327e-16
963790947.7369342 -0.9999999999999789 1.2246467991473273e-16 2.055035589706857e-07 0.0 2.055035589706857e-07 0.0 -0.9999999999999789 1.2246467991473273e-16
963878469.6174043 -0.999999999999979 1.2246467991473276e-16 2.046099787033605e-07 0.0 2.046099787033605e-07 0.0 -0.999999999999979 1.2246467991473276e-16
963965991.4978744 -0.9999999999999792 1.2246467991473278e-16 2.0372113025660175e-07 0.0 2.0372113025660175e-07 0.0 -0.9999999999999792 1.2246467991473278e-16
964053513.3783445 -0.9999999999999793 1.2246467991473278e-16 2.0283698415337665e-07 0.0 2.0283698415337665e-07 0.0 -0.9999999999999793 1.2246467991473278e-16
964141035.2588147 -0.9999999999999796 1.2246467991473283e-16 2.0195751112756903e-07 0.0 2.0195751112756903e-07 0.0 -0.9999999999999796 1.2246467991473283e-16
964228557.1392848 -0.9999999999999798 1.2246467991473286e-16 2.010826821222847e-07 0.0 2.010826821222847e-07 0.0 -0.9999999999999798 1.2246467991473286e-16
964316079.0197549 -0.9999999999999799 1.2246467991473286e-16 2.002124682881595e-07 0.0 2.002124682881595e-07 0.0 -0.9999999999999799 1.2246467991473286e-16
964403600.900225 -0.9999999999999801 1.2246467991473288e-16 1.9934684098168114e-07 0.0 1.9934684098168114e-07 0.0 -0.9999999999999801 1.2246467991473288e-16
964491122.7806952 -0.9999999999999802 1.224646799147329e-16 1.9848577176354116e-07 0.0 1.9848577176354116e-07 0.0 -0.9999999999999802 1.224646799147329e-16
964578644.6611652 -0.9999999999999805 1.2246467991473293e-16 1.976292323969889e-07 0.0 1.976292323969889e-07 0.0 -0.9999999999999805 1.2246467991473293e-16
964666166.5416354 -0.9999999999999806 1.2246467991473293e-16 1.9677719484619468e-07 0.0 1.9677719484619468e-07 0.0 -0.9999999999999806 1.2246467991473293e-16
964753688.4221056 -0.9999999999999808 1.2246467991473298e-16 1.9592963127465217e-07 0.0 1.9592963127465217e-07 0.0 -0.9999999999999808 1.2246467991473298e-16
964841210.3025756 -0.9999999999999809 1.2246467991473298e-16 1.9508651404356316e-07 0.0 1.9508651404356316e-07 0.0 -0.9999999999999809 1.2246467991473298e-16
964928732.1830457 -0.9999999999999811 1.22464679914733e-16 1.9424781571026293e-07 0.0 1.9424781571026293e-07 0.0 -0.9999999999999811 1.22464679914733e-16
965016254.0635159 -0.9999999999999812 1.2246467991473303e-16 1.9341350902664674e-07 0.0 1.9341350902664674e-07 0.0 -0.9999999999999812 1.2246467991473303e-16
965103775.9439859 -0.9999999999999815 1.2246467991473305e-16 1.92583566937612e-07 0.0 1.92583566937612e-07 0.0 -0.9999999999999815 1.2246467991473305e-16
965191297.8244561 -0.9999999999999816 1.2246467991473305e-16 1.917579625795137e-07 0.0 1.917579625795137e-07 0.0 -0.9999999999999816 1.2246467991473305e-16
965278819.7049263 -0.9999999999999818 1.224646799147331e-16 1.9093666927864e-07 0.0 1.9093666927864e-07 0.0 -0.9999999999999818 1.224646799147331e-16
965366341.5853964 -0.9999999999999819 1.224646799147331e-16 1.901196605496933e-07 0.0 1.901196605496933e-07 0.0 -0.9999999999999819 1.224646799147331e-16
965453863.4658664 -0.999999999999982 1.2246467991473313e-16 1.8930691009429029e-07 0.0 1.8930691009429029e-07 0.0 -0.999999999999982 1.2246467991473313e-16
965541385.3463366 -0.9999999999999822 1.2246467991473315e-16 1.8849839179946822e-07 0.0 1.8849839179946822e-07 0.0 -0.9999999999999822 1.2246467991473315e-16
965628907.2268068 -0.9999999999999823 1.2246467991473315e-16 1.8769407973621614e-07 0.0 1.8769407973621614e-07 0.0 -0.9999999999999823 1.2246467991473315e-16
965716429.1072768 -0.9999999999999825 1.2246467991473318e-16 1.8689394815800683e-07 0.0 1.8689394815800683e-07 0.0 -0.9999999999999825 1.2246467991473318e-16
965803950.987747 -0.9999999999999827 1.224646799147332e-16 1.860979714993522e-07 0.0 1.860979714993522e-07 0.0 -0.9999999999999827 1.224646799147332e-16
965891472.8682171 -0.9999999999999828 1.2246467991473323e-16 1.8530612437436107e-07 0.0 1.8530612437436107e-07 0.0 -0.9999999999999828 1.2246467991473323e-16
965978994.7486871 -0.9999999999999829 1.2246467991473323e-16 1.845183815753215e-07 0.0 1.845183815753215e-07 0.0 -0.9999999999999829 1.2246467991473323e-16
966066516.6291573 -0.9999999999999831 1.2246467991473325e-16 1.8373471807127955e-07 0.0 1.8373471807127955e-07 0.0 -0.9999999999999831 1.2246467991473325e-16
966154038.5096275 -0.9999999999999832 1.2246467991473327e-16 1.829551090066534e-07 0.0 1.829551090066534e-07 0.0 -0.9999999999999832 1.2246467991473327e-16
966241560.3900976 -0.9999999999999833 1.2246467991473327e-16 1.8217952969983436e-07 0.0 1.8217952969983436e-07 0.0 -0.9999999999999833 1.2246467991473327e-16
966329082.2705677 -0.9999999999999836 1.224646799147333e-16 1.8140795564182341e-07 0.0 1.8140795564182341e-07 0.0 -0.9999999999999836 1.224646799147333e-16
966416604.1510378 -0.9999999999999837 1.2246467991473332e-16 1.8064036249485642e-07 0.0 1.8064036249485642e-07 0.0 -0.9999999999999837 1.2246467991473332e-16
966504126.031508 -0.9999999999999838 1.2246467991473332e-16 1.7987672609106578e-07 0.0 1.7987672609106578e-07 0.0 -0.9999999999999838 1.2246467991473332e-16
966591647.911978 -0.9999999999999839 1.2246467991473335e-16 1.7911702243113276e-07 0.0 1.7911702243113276e-07 0.0 -0.9999999999999839 1.2246467991473335e-16
966679169.7924482 -0.999999999999984 1.2246467991473337e-16 1.783612276829675e-07 0.0 1.783612276829675e-07 0.0 -0.999999999999984 1.2246467991473337e-16
966766691.6729183 -0.9999999999999842 1.224646799147334e-16 1.7760931818038954e-07 0.0 1.7760931818038954e-07 0.0 -0.9999999999999842 1.224646799147334e-16
966854213.5533884 -0.9999999999999843 1.224646799147334e-16 1.768612704218252e-07 0.0 1.768612704218252e-07 0.0 -0.9999999999999843 1.224646799147334e-16
966941735.4338585 -0.9999999999999845 1.2246467991473342e-16 1.761170610690143e-07 0.0 1.761170610690143e-07 0.0 -0.9999999999999845 1.2246467991473342e-16
967029257.3143287 -0.9999999999999846 1.2246467991473342e-16 1.7537666694573436e-07 0.0 1.7537666694573436e-07 0.0 -0.9999999999999846 1.2246467991473342e-16
967116779.1947988 -0.9999999999999847 1.2246467991473345e-16 1.7464006503652015e-07 0.0 1.7464006503652015e-07 0.0 -0.9999999999999847 1.2246467991473345e-16
967204301.0752689 -0.9999999999999849 1.2246467991473347e-16 1.7390723248542044e-07 0.0 1.7390723248542044e-07 0.0 -0.9999999999999849 1.2246467991473347e-16
967291822.955739 -0.999999999999985 1.224646799147335e-16 1.7317814659473234e-07 0.0 1.7317814659473234e-07 0.0 -0.999999999999985 1.224646799147335e-16
967379344.8362092 -0.9999999999999851 1.224646799147335e-16 1.72452784823781e-07 0.0 1.72452784823781e-07 0.0 -0.9999999999999851 1.224646799147335e-16
967466866.7166792 -0.9999999999999852 1.2246467991473352e-16 1.7173112478768197e-07 0.0 1.7173112478768197e-07 0.0 -0.9999999999999852 1.2246467991473352e-16
967554388.5971494 -0.9999999999999853 1.2246467991473352e-16 1.7101314425613214e-07 0.0 1.7101314425613214e-07 0.0 -0.9999999999999853 1.2246467991473352e-16
967641910.4776195 -0.9999999999999855 1.2246467991473355e-16 1.7029882115219927e-07 0.0 1.7029882115219927e-07 0.0 -0.9999999999999855 1.2246467991473355e-16
967729432.3580896 -0.9999999999999856 1.2246467991473355e-16 1.695881335511365e-07 0.0 1.695881335511365e-07 0.0 -0.9999999999999856 1.2246467991473355e-16
967816954.2385597 -0.9999999999999857 1.2246467991473357e-16 1.6888105967918714e-07 0.0 1.6888105967918714e-07 0.0 -0.9999999999999857 1.2246467991473357e-16
967904476.1190299 -0.9999999999999858 1.2246467991473357e-16 1.6817757791242e-07 0.0 1.6817757791242e-07 0.0 -0.9999999999999858 1.2246467991473357e-16
967991997.9994999 -0.9999999999999859 1.224646799147336e-16 1.6747766677556207e-07 0.0 1.6747766677556207e-07 0.0 -0.9999999999999859 1.224646799147336e-16
968079519.8799701 -0.999999999999986 1.2246467991473362e-16 1.6678130494084127e-07 0.0 1.6678130494084127e-07 0.0 -0.999999999999986 1.2246467991473362e-16
968167041.7604402 -0.9999999999999862 1.2246467991473364e-16 1.6608847122685158e-07 0.0 1.6608847122685158e-07 0.0 -0.9999999999999862 1.2246467991473364e-16
968254563.6409104 -0.9999999999999863 1.2246467991473364e-16 1.6539914459741308e-07 0.0 1.6539914459741308e-07 0.0 -0.9999999999999863 1.2246467991473364e-16
968342085.5213804 -0.9999999999999865 1.2246467991473367e-16 1.647133041604467e-07 0.0 1.647133041604467e-07 0.0 -0.9999999999999865 1.2246467991473367e-16
968429607.4018506 -0.9999999999999866 1.2246467991473367e-16 1.6403092916686605e-07 0.0 1.6403092916686605e-07 0.0 -0.9999999999999866 1.2246467991473367e-16
968517129.2823206 -0.9999999999999867 1.224646799147337e-16 1.6335199900946828e-07 0.0 1.6335199900946828e-07 0.0 -0.9999999999999867 1.224646799147337e-16
968604651.1627907 -0.9999999999999868 1.224646799147337e-16 1.6267649322183632e-07 0.0 1.6267649322183632e-07 0.0 -0.9999999999999868 1.224646799147337e-16
968692173.0432608 -0.9999999999999869 1.2246467991473372e-16 1.6200439147726118e-07 0.0 1.6200439147726118e-07 0.0 -0.9999999999999869 1.2246467991473372e-16
968779694.923731 -0.999999999999987 1.2246467991473372e-16 1.6133567358765948e-07 0.0 1.6133567358765948e-07 0.0 -0.999999999999987 1.2246467991473372e-16
968867216.8042011 -0.999999999999987 1.2246467991473372e-16 1.6067031950250792e-07 0.0 1.6067031950250792e-07 0.0 -0.999999999999987 1.2246467991473372e-16
968954738.6846712 -0.9999999999999871 1.2246467991473374e-16 1.6000830930778525e-07 0.0 1.6000830930778525e-07 0.0 -0.9999999999999871 1.2246467991473374e-16
969042260.5651413 -0.9999999999999872 1.2246467991473377e-16 1.5934962322492104e-07 0.0 1.5934962322492104e-07 0.0 -0.9999999999999872 1.2246467991473377e-16
969129782.4456115 -0.9999999999999873 1.2246467991473377e-16 1.586942416097602e-07 0.0 1.586942416097602e-07 0.0 -0.9999999999999873 1.2246467991473377e-16
969217304.3260815 -0.9999999999999875 1.224646799147338e-16 1.580421449515315e-07 0.0 1.580421449515315e-07 0.0 -0.9999999999999875 1.224646799147338e-16
969304826.2065517 -0.9999999999999876 1.224646799147338e-16 1.573933138718153e-07 0.0 1.573933138718153e-07 0.0 -0.9999999999999876 1.224646799147338e-16
969392348.0870218 -0.9999999999999877 1.2246467991473382e-16 1.5674772912354634e-07 0.0 1.5674772912354634e-07 0.0 -0.9999999999999877 1.2246467991473382e-16
969479869.9674919 -0.9999999999999878 1.2246467991473382e-16 1.5610537158999654e-07 0.0 1.5610537158999654e-07 0.0 -0.9999999999999878 1.2246467991473382e-16
969567391.847962 -0.9999999999999879 1.2246467991473384e-16 1.5546622228378035e-07 0.0 1.5546622228378035e-07 0.0 -0.9999999999999879 1.2246467991473384e-16
969654913.7284322 -0.999999999999988 1.2246467991473384e-16 1.5483026234587274e-07 0.0 1.5483026234587274e-07 0.0 -0.999999999999988 1.2246467991473384e-16
969742435.6089023 -0.9999999999999881 1.2246467991473387e-16 1.5419747304462496e-07 0.0 1.5419747304462496e-07 0.0 -0.9999999999999881 1.2246467991473387e-16
969829957.4893724 -0.9999999999999882 1.224646799147339e-16 1.5356783577479297e-07 0.0 1.5356783577479297e-07 0.0 -0.9999999999999882 1.224646799147339e-16
969917479.3698425 -0.9999999999999882 1.224646799147339e-16 1.5294133205657408e-07 0.0 1.5294133205657408e-07 0.0 -0.9999999999999882 1.224646799147339e-16
970005001.2503127 -0.9999999999999883 1.224646799147339e-16 1.5231794353465837e-07 0.0 1.5231794353465837e-07 0.0 -0.9999999999999883 1.224646799147339e-16
970092523.1307826 -0.9999999999999885 1.2246467991473392e-16 1.516976519772759e-07 0.0 1.516976519772759e-07 0.0 -0.9999999999999885 1.2246467991473392e-16
970180045.0112528 -0.9999999999999886 1.2246467991473392e-16 1.5108043927525564e-07 0.0 1.5108043927525564e-07 0.0 -0.9999999999999886 1.2246467991473392e-16
970267566.8917229 -0.9999999999999887 1.2246467991473394e-16 1.5046628744110533e-07 0.0 1.5046628744110533e-07 0.0 -0.9999999999999887 1.2246467991473394e-16
970355088.772193 -0.9999999999999888 1.2246467991473394e-16 1.498551786080779e-07 0.0 1.498551786080779e-07 0.0 -0.9999999999999888 1.2246467991473394e-16
970442610.6526631 -0.9999999999999888 1.2246467991473394e-16 1.492470950292612e-07 0.0 1.492470950292612e-07 0.0 -0.9999999999999888 1.2246467991473394e-16
970530132.5331333 -0.9999999999999889 1.2246467991473396e-16 1.4864201907667036e-07 0.0 1.4864201907667036e-07 0.0 -0.9999999999999889 1.2246467991473396e-16
970617654.4136034 -0.999999999999989 1.2246467991473396e-16 1.4803993324034935e-07 0.0 1.4803993324034935e-07 0.0 -0.999999999999989 1.2246467991473396e-16
970705176.2940735 -0.9999999999999891 1.22464679914734e-16 1.474408201274751e-07 0.0 1.474408201274751e-07 0.0 -0.9999999999999891 1.22464679914734e-16
970792698.1745436 -0.9999999999999892 1.2246467991473401e-16 1.4684466246147732e-07 0.0 1.4684466246147732e-07 0.0 -0.9999999999999892 1.2246467991473401e-16
970880220.0550138 -0.9999999999999892 1.2246467991473401e-16 1.46251443081158e-07 0.0 1.46251443081158e-07 0.0 -0.9999999999999892 1.2246467991473401e-16
970967741.9354838 -0.9999999999999893 1.2246467991473401e-16 1.4566114493982338e-07 0.0 1.4566114493982338e-07 0.0 -0.9999999999999893 1.2246467991473401e-16
971055263.815954 -0.9999999999999895 1.2246467991473404e-16 1.4507375110441917e-07 0.0 1.4507375110441917e-07 0.0 -0.9999999999999895 1.2246467991473404e-16
971142785.6964241 -0.9999999999999896 1.2246467991473404e-16 1.4448924475468042e-07 0.0 1.4448924475468042e-07 0.0 -0.9999999999999896 1.2246467991473404e-16
971230307.5768942 -0.9999999999999896 1.2246467991473404e-16 1.4390760918227824e-07 0.0 1.4390760918227824e-07 0.0 -0.9999999999999896 1.2246467991473404e-16
971317829.4573643 -0.9999999999999897 1.2246467991473406e-16 1.4332882778998047e-07 0.0 1.4332882778998047e-07 0.0 -0.9999999999999897 1.2246467991473406e-16
971405351.3378345 -0.9999999999999898 1.2246467991473406e-16 1.4275288409081838e-07 0.0 1.4275288409081838e-07 0.0 -0.9999999999999898 1.2246467991473406e-16
971492873.2183046 -0.9999999999999899 1.224646799147341e-16 1.4217976170725967e-07 0.0 1.4217976170725967e-07 0.0 -0.9999999999999899 1.224646799147341e-16
971580395.0987747 -0.9999999999999899 1.224646799147341e-16 1.4160944437038893e-07 0.0 1.4160944437038893e-07 0.0 -0.9999999999999899 1.224646799147341e-16
971667916.9792448 -0.99999999999999 1.224646799147341e-16 1.4104191591909076e-07 0.0 1.4104191591909076e-07 0.0 -0.99999999999999 1.224646799147341e-16
971755438.859715 -0.9999999999999901 1.2246467991473411e-16 1.4047716029924945e-07 0.0 1.4047716029924945e-07 0.0 -0.9999999999999901 1.2246467991473411e-16
971842960.740185 -0.9999999999999902 1.2246467991473411e-16 1.399151615629445e-07 0.0 1.399151615629445e-07 0.0 -0.9999999999999902 1.2246467991473411e-16
971930482.6206552 -0.9999999999999902 1.2246467991473411e-16 1.3935590386765697e-07 0.0 1.3935590386765697e-07 0.0 -0.9999999999999902 1.2246467991473411e-16
972018004.5011253 -0.9999999999999903 1.2246467991473414e-16 1.3879937147548837e-07 0.0 1.3879937147548837e-07 0.0 -0.9999999999999903 1.2246467991473414e-16
972105526.3815954 -0.9999999999999905 1.2246467991473416e-16 1.3824554875237798e-07 0.0 1.3824554875237798e-07 0.0 -0.9999999999999905 1.2246467991473416e-16
972193048.2620655 -0.9999999999999905 1.2246467991473416e-16 1.376944201673257e-07 0.0 1.376944201673257e-07 0.0 -0.9999999999999905 1.2246467991473416e-16
972280570.1425357 -0.9999999999999906 1.2246467991473416e-16 1.371459702916283e-07 0.0 1.371459702916283e-07 0.0 -0.9999999999999906 1.2246467991473416e-16
972368092.0230057 -0.9999999999999907 1.2246467991473419e-16 1.3660018379812227e-07 0.0 1.3660018379812227e-07 0.0 -0.9999999999999907 1.2246467991473419e-16
972455613.9034759 -0.9999999999999907 1.2246467991473419e-16 1.360570454604213e-07 0.0 1.360570454604213e-07 0.0 -0.9999999999999907 1.2246467991473419e-16
972543135.783946 -0.9999999999999908 1.2246467991473419e-16 1.355165401521762e-07 0.0 1.355165401521762e-07 0.0 -0.9999999999999908 1.2246467991473419e-16
972630657.6644162 -0.9999999999999909 1.224646799147342e-16 1.3497865284632802e-07 0.0 1.3497865284632802e-07 0.0 -0.9999999999999909 1.224646799147342e-16
972718179.5448862 -0.9999999999999909 1.224646799147342e-16 1.344433686143739e-07 0.0 1.344433686143739e-07 0.0 -0.9999999999999909 1.224646799147342e-16
972805701.4253564 -0.999999999999991 1.224646799147342e-16 1.3391067262563493e-07 0.0 1.3391067262563493e-07 0.0 -0.999999999999991 1.224646799147342e-16
972893223.3058265 -0.9999999999999911 1.2246467991473424e-16 1.3338055014653673e-07 0.0 1.3338055014653673e-07 0.0 -0.9999999999999911 1.2246467991473424e-16
972980745.1862966 -0.9999999999999911 1.2246467991473424e-16 1.3285298653989116e-07 0.0 1.3285298653989116e-07 0.0 -0.9999999999999911 1.2246467991473424e-16
973068267.0667667 -0.9999999999999912 1.2246467991473424e-16 1.3232796726417836e-07 0.0 1.3232796726417836e-07 0.0 -0.9999999999999912 1.2246467991473424e-16
973155788.9472369 -0.9999999999999913 1.2246467991473426e-16 1.3180547787284717e-07 0.0 1.3180547787284717e-07 0.0 -0.9999999999999913 1.2246467991473426e-16
973243310.8277069 -0.9999999999999913 1.2246467991473426e-16 1.3128550401361545e-07 0.0 1.3128550401361545e-07 0.0 -0.9999999999999913 1.2246467991473426e-16
973330832.7081771 -0.9999999999999915 1.2246467991473429e-16 1.3076803142776742e-07 0.0 1.3076803142776742e-07 0.0 -0.9999999999999915 1.2246467991473429e-16
973418354.5886472 -0.9999999999999915 1.2246467991473429e-16 1.3025304594947557e-07 0.0 1.3025304594947557e-07 0.0 -0.9999999999999915 1.2246467991473429e-16
973505876.4691174 -0.9999999999999916 1.2246467991473429e-16 1.2974053350511084e-07 0.0 1.2974053350511084e-07 0.0 -0.9999999999999916 1.2246467991473429e-16
973593398.3495874 -0.9999999999999917 1.224646799147343e-16 1.2923048011256678e-07 0.0 1.2923048011256678e-07 0.0 -0.9999999999999917 1.224646799147343e-16
973680920.2300576 -0.9999999999999917 1.224646799147343e-16 1.2872287188058643e-07 0.0 1.2872287188058643e-07 0.0 -0.9999999999999917 1.224646799147343e-16
973768442.1105278 -0.9999999999999918 1.224646799147343e-16 1.2821769500809887e-07 0.0 1.2821769500809887e-07 0.0 -0.9999999999999918 1.224646799147343e-16
973855963.9909978 -0.9999999999999918 1.224646799147343e-16 1.2771493578355596e-07 0.0 1.2771493578355596e-07 0.0 -0.9999999999999918 1.224646799147343e-16
973943485.871468 -0.9999999999999919 1.2246467991473433e-16 1.2721458058427605e-07 0.0 1.2721458058427605e-07 0.0 -0.9999999999999919 1.2246467991473433e-16
974031007.7519381 -0.9999999999999919 1.2246467991473433e-16 1.2671661587579484e-07 0.0 1.2671661587579484e-07 0.0 -0.9999999999999919 1.2246467991473433e-16
974118529.6324081 -0.999999999999992 1.2246467991473433e-16 1.2622102821122206e-07 0.0 1.2622102821122206e-07 0.0 -0.999999999999992 1.2246467991473433e-16
974206051.5128783 -0.9999999999999921 1.2246467991473436e-16 1.2572780423059755e-07 0.0 1.2572780423059755e-07 0.0 -0.9999999999999921 1.2246467991473436e-16
974293573.3933485 -0.9999999999999921 1.2246467991473436e-16 1.2523693066025933e-07 0.0 1.2523693066025933e-07 0.0 -0.9999999999999921 1.2246467991473436e-16
974381095.2738186 -0.9999999999999922 1.2246467991473436e-16 1.247483943122176e-07 0.0 1.247483943122176e-07 0.0 -0.9999999999999922 1.2246467991473436e-16
974468617.1542886 -0.9999999999999922 1.2246467991473436e-16 1.24262182083523e-07 0.0 1.24262182083523e-07 0.0 -0.9999999999999922 1.2246467991473436e-16
974556139.0347588 -0.9999999999999923 1.2246467991473438e-16 1.237782809556509e-07 0.0 1.237782809556509e-07 0.0 -0.9999999999999923 1.2246467991473438e-16
974643660.915229 -0.9999999999999923 1.2246467991473438e-16 1.23296677993891e-07 0.0 1.23296677993891e-07 0.0 -0.9999999999999923 1.2246467991473438e-16
974731182.795699 -0.9999999999999925 1.2246467991473438e-16 1.2281736034673316e-07 0.0 1.2281736034673316e-07 0.0 -0.9999999999999925 1.2246467991473438e-16
974818704.6761692 -0.9999999999999925 1.2246467991473438e-16 1.2234031524526368e-07 0.0 1.2234031524526368e-07 0.0 -0.9999999999999925 1.2246467991473438e-16
974906226.5566393 -0.9999999999999926 1.224646799147344e-16 1.2186553000256823e-07 0.0 1.2186553000256823e-07 0.0 -0.9999999999999926 1.224646799147344e-16
974993748.4371092 -0.9999999999999926 1.224646799147344e-16 1.2139299201313693e-07 0.0 1.2139299201313693e-07 0.0 -0.9999999999999926 1.224646799147344e-16
975081270.3175794 -0.9999999999999927 1.2246467991473443e-16 1.209226887522709e-07 0.0 1.209226887522709e-07 0.0 -0.9999999999999927 1.2246467991473443e-16
975168792.1980495 -0.9999999999999927 1.2246467991473443e-16 1.2045460777550237e-07 0.0 1.2045460777550237e-07 0.0 -0.9999999999999927 1.2246467991473443e-16
975256314.0785197 -0.9999999999999928 1.2246467991473443e-16 1.1998873671801156e-07 0.0 1.1998873671801156e-07 0.0 -0.9999999999999928 1.2246467991473443e-16
975343835.9589897 -0.9999999999999928 1.2246467991473443e-16 1.1952506329405397e-07 0.0 1.1952506329405397e-07 0.0 -0.9999999999999928 1.2246467991473443e-16
975431357.8394599 -0.9999999999999929 1.2246467991473446e-16 1.1906357529638274e-07 0.0 1.1906357529638274e-07 0.0 -0.9999999999999929 1.2246467991473446e-16
975518879.71993 -0.9999999999999929 1.2246467991473446e-16 1.1860426059568971e-07 0.0 1.1860426059568971e-07 0.0 -0.9999999999999929 1.2246467991473446e-16
975606401.6004001 -0.999999999999993 1.2246467991473446e-16 1.1814710714004166e-07 0.0 1.1814710714004166e-07 0.0 -0.999999999999993 1.2246467991473446e-16
975693923.4808702 -0.999999999999993 1.2246467991473446e-16 1.1769210295431842e-07 0.0 1.1769210295431842e-07 0.0 -0.999999999999993 1.2246467991473446e-16
975781445.3613404 -0.9999999999999931 1.2246467991473448e-16 1.1723923613966741e-07 0.0 1.1723923613966741e-07 0.0 -0.9999999999999931 1.2246467991473448e-16
975868967.2418104 -0.9999999999999931 1.2246467991473448e-16 1.1678849487294855e-07 0.0 1.1678849487294855e-07 0.0 -0.9999999999999931 1.2246467991473448e-16
975956489.1222806 -0.9999999999999932 1.2246467991473448e-16 1.163398674061957e-07 0.0 1.163398674061957e-07 0.0 -0.9999999999999932 1.2246467991473448e-16
976044011.0027508 -0.9999999999999932 1.2246467991473448e-16 1.1589334206607181e-07 0.0 1.1589334206607181e-07 0.0 -0.9999999999999932 1.2246467991473448e-16
976131532.8832209 -0.9999999999999933 1.224646799147345e-16 1.154489072533384e-07 0.0 1.154489072533384e-07 0.0 -0.9999999999999933 1.224646799147345e-16
976219054.763691 -0.9999999999999933 1.224646799147345e-16 1.1500655144232257e-07 0.0 1.1500655144232257e-07 0.0 -0.9999999999999933 1.224646799147345e-16
976306576.6441611 -0.9999999999999934 1.224646799147345e-16 1.1456626318038752e-07 0.0 1.1456626318038752e-07 0.0 -0.9999999999999934 1.224646799147345e-16
976394098.5246313 -0.9999999999999934 1.224646799147345e-16 1.1412803108741462e-07 0.0 1.1412803108741462e-07 0.0 -0.9999999999999934 1.224646799147345e-16
976481620.4051013 -0.9999999999999936 1.2246467991473453e-16 1.136918438552819e-07 0.0 1.136918438552819e-07 0.0 -0.9999999999999936 1.2246467991473453e-16
976569142.2855715 -0.9999999999999936 1.2246467991473453e-16 1.1325769024735053e-07 0.0 1.1325769024735053e-07 0.0 -0.9999999999999936 1.2246467991473453e-16
976656664.1660415 -0.9999999999999936 1.2246467991473453e-16 1.1282555909795564e-07 0.0 1.1282555909795564e-07 0.0 -0.9999999999999936 1.2246467991473453e-16
976744186.0465115 -0.9999999999999937 1.2246467991473456e-16 1.1239543931189802e-07 0.0 1.1239543931189802e-07 0.0 -0.9999999999999937 1.2246467991473456e-16
976831707.9269817 -0.9999999999999937 1.2246467991473456e-16 1.1196731986394191e-07 0.0 1.1196731986394191e-07 0.0 -0.9999999999999937 1.2246467991473456e-16
976919229.8074518 -0.9999999999999938 1.2246467991473456e-16 1.1154118979832064e-07 0.0 1.1154118979832064e-07 0.0 -0.9999999999999938 1.2246467991473456e-16
977006751.687922 -0.9999999999999938 1.2246467991473456e-16 1.1111703822823779e-07 0.0 1.1111703822823779e-07 0.0 -0.9999999999999938 1.2246467991473456e-16
977094273.568392 -0.9999999999999939 1.2246467991473458e-16 1.1069485433538113e-07 0.0 1.1069485433538113e-07 0.0 -0.9999999999999939 1.2246467991473458e-16
977181795.4488622 -0.9999999999999939 1.2246467991473458e-16 1.1027462736943086e-07 0.0 1.1027462736943086e-07 0.0 -0.9999999999999939 1.2246467991473458e-16
977269317.3293324 -0.9999999999999939 1.2246467991473458e-16 1.0985634664758158e-07 0.0 1.0985634664758158e-07 0.0 -0.9999999999999939 1.2246467991473458e-16
977356839.2098024 -0.999999999999994 1.2246467991473458e-16 1.0944000155406389e-07 0.0 1.0944000155406389e-07 0.0 -0.999999999999994 1.2246467991473458e-16
977444361.0902725 -0.999999999999994 1.2246467991473458e-16 1.0902558153966353e-07 0.0 1.0902558153966353e-07 0.0 -0.999999999999994 1.2246467991473458e-16
977531882.9707427 -0.9999999999999941 1.224646799147346e-16 1.0861307612125715e-07 0.0 1.0861307612125715e-07 0.0 -0.9999999999999941 1.224646799147346e-16
977619404.8512127 -0.9999999999999941 1.224646799147346e-16 1.082024748813426e-07 0.0 1.082024748813426e-07 0.0 -0.9999999999999941 1.224646799147346e-16
977706926.7316829 -0.9999999999999941 1.224646799147346e-16 1.077937674675717e-07 0.0 1.077937674675717e-07 0.0 -0.9999999999999941 1.224646799147346e-16
977794448.612153 -0.9999999999999942 1.224646799147346e-16 1.073869435922943e-07 0.0 1.073869435922943e-07 0.0 -0.9999999999999942 1.224646799147346e-16
977881970.4926232 -0.9999999999999942 1.224646799147346e-16 1.0698199303209957e-07 0.0 1.0698199303209957e-07 0.0 -0.9999999999999942 1.224646799147346e-16
977969492.3730932 -0.9999999999999943 1.2246467991473463e-16 1.0657890562736497e-07 0.0 1.0657890562736497e-07 0.0 -0.9999999999999943 1.2246467991473463e-16
978057014.2535634 -0.9999999999999943 1.2246467991473463e-16 1.0617767128180327e-07 0.0 1.0617767128180327e-07 0.0 -0.9999999999999943 1.2246467991473463e-16
978144536.1340336 -0.9999999999999943 1.2246467991473463e-16 1.0577827996202103e-07 0.0 1.0577827996202103e-07 0.0 -0.9999999999999943 1.2246467991473463e-16
978232058.0145036 -0.9999999999999944 1.2246467991473463e-16 1.0538072169707266e-07 0.0 1.0538072169707266e-07 0.0 -0.9999999999999944 1.2246467991473463e-16
978319579.8949738 -0.9999999999999944 1.2246467991473463e-16 1.0498498657802305e-07 0.0 1.0498498657802305e-07 0.0 -0.9999999999999944 1.2246467991473463e-16
978407101.7754439 -0.9999999999999944 1.2246467991473463e-16 1.0459106475751268e-07 0.0 1.0459106475751268e-07 0.0 -0.9999999999999944 1.2246467991473463e-16
978494623.655914 -0.9999999999999946 1.2246467991473466e-16 1.0419894644932517e-07 0.0 1.0419894644932517e-07 0.0 -0.9999999999999946 1.2246467991473466e-16
978582145.5363841 -0.9999999999999946 1.2246467991473466e-16 1.0380862192795627e-07 0.0 1.0380862192795627e-07 0.0 -0.9999999999999946 1.2246467991473466e-16
978669667.4168543 -0.9999999999999947 1.2246467991473468e-16 1.0342008152819245e-07 0.0 1.0342008152819245e-07 0.0 -0.9999999999999947 1.2246467991473468e-16
978757189.2973243 -0.9999999999999947 1.2246467991473468e-16 1.030333156446865e-07 0.0 1.030333156446865e-07 0.0 -0.9999999999999947 1.2246467991473468e-16
978844711.1777945 -0.9999999999999947 1.2246467991473468e-16 1.0264831473153729e-07 0.0 1.0264831473153729e-07 0.0 -0.9999999999999947 1.2246467991473468e-16
978932233.0582646 -0.9999999999999948 1.2246467991473468e-16 1.0226506930187877e-07 0.0 1.0226506930187877e-07 0.0 -0.9999999999999948 1.2246467991473468e-16
979019754.9387348 -0.9999999999999948 1.2246467991473468e-16 1.0188356992746438e-07 0.0 1.0188356992746438e-07 0.0 -0.9999999999999948 1.2246467991473468e-16
979107276.8192048 -0.9999999999999948 1.2246467991473468e-16 1.015038072382585e-07 0.0 1.015038072382585e-07 0.0 -0.9999999999999948 1.2246467991473468e-16
979194798.699675 -0.9999999999999949 1.224646799147347e-16 1.0112577192202902e-07 0.0 1.0112577192202902e-07 0.0 -0.9999999999999949 1.224646799147347e-16
979282320.5801451 -0.9999999999999949 1.224646799147347e-16 1.0074945472395046e-07 0.0 1.0074945472395046e-07 0.0 -0.9999999999999949 1.224646799147347e-16
979369842.4606152 -0.9999999999999949 1.224646799147347e-16 1.0037484644619743e-07 0.0 1.0037484644619743e-07 0.0 -0.9999999999999949 1.224646799147347e-16
979457364.3410853 -0.999999999999995 1.224646799147347e-16 1.0000193794755106e-07 0.0 1.0000193794755106e-07 0.0 -0.999999999999995 1.224646799147347e-16
979544886.2215555 -0.999999999999995 1.224646799147347e-16 9.963072014300789e-08 0.0 9.963072014300789e-08 0.0 -0.999999999999995 1.224646799147347e-16
979632408.1020255 -0.999999999999995 1.224646799147347e-16 9.926118400338532e-08 0.0 9.926118400338532e-08 0.0 -0.999999999999995 1.224646799147347e-16
979719929.9824957 -0.9999999999999951 1.2246467991473473e-16 9.88933205549361e-08 0.0 9.88933205549361e-08 0.0 -0.9999999999999951 1.2246467991473473e-16
979807451.8629658 -0.9999999999999951 1.2246467991473473e-16 9.852712087896477e-08 0.0 9.852712087896477e-08 0.0 -0.9999999999999951 1.2246467991473473e-16
979894973.743436 -0.9999999999999951 1.2246467991473473e-16 9.816257611144661e-08 0.0 9.816257611144661e-08 0.0 -0.9999999999999951 1.2246467991473473e-16
979982495.623906 -0.9999999999999952 1.2246467991473473e-16 9.779967744264585e-08 0.0 9.779967744264585e-08 0.0 -0.9999999999999952 1.2246467991473473e-16
980070017.5043762 -0.9999999999999952 1.2246467991473473e-16 9.743841611674422e-08 0.0 9.743841611674422e-08 0.0 -0.9999999999999952 1.2246467991473473e-16
980157539.3848463 -0.9999999999999952 1.2246467991473473e-16 9.707878343146573e-08 0.0 9.707878343146573e-08 0.0 -0.9999999999999952 1.2246467991473473e-16
980245061.2653164 -0.9999999999999953 1.2246467991473475e-16 9.672077073770905e-08 0.0 9.672077073770905e-08 0.0 -0.9999999999999953 1.2246467991473475e-16
980332583.1457865 -0.9999999999999953 1.2246467991473475e-16 9.636436943917707e-08 0.0 9.636436943917707e-08 0.0 -0.9999999999999953 1.2246467991473475e-16
980420105.0262567 -0.9999999999999953 1.2246467991473475e-16 9.600957099201676e-08 0.0 9.600957099201676e-08 0.0 -0.9999999999999953 1.2246467991473475e-16
980507626.9067267 -0.9999999999999954 1.2246467991473475e-16 9.565636690445638e-08 0.0 9.565636690445638e-08 0.0 -0.9999999999999954 1.2246467991473475e-16
980595148.7871969 -0.9999999999999954 1.2246467991473475e-16 9.53047487364443e-08 0.0 9.53047487364443e-08 0.0 -0.9999999999999954 1.2246467991473475e-16
980682670.667667 -0.9999999999999954 1.2246467991473475e-16 9.495470809929893e-08 0.0 9.495470809929893e-08 0.0 -0.9999999999999954 1.2246467991473475e-16
980770192.5481372 -0.9999999999999954 1.2246467991473475e-16 9.460623665535068e-08 0.0 9.460623665535068e-08 0.0 -0.9999999999999954 1.2246467991473475e-16
980857714.4286072 -0.9999999999999956 1.2246467991473478e-16 9.425932611759273e-08 0.0 9.425932611759273e-08 0.0 -0.9999999999999956 1.2246467991473478e-16
980945236.3090774 -0.9999999999999956 1.2246467991473478e-16 9.391396824933411e-08 0.0 9.391396824933411e-08 0.0 -0.9999999999999956 1.2246467991473478e-16
981032758.1895475 -0.9999999999999956 1.2246467991473478e-16 9.357015486385568e-08 0.0 9.357015486385568e-08 0.0 -0.9999999999999956 1.2246467991473478e-16
981120280.0700176 -0.9999999999999957 1.2246467991473478e-16 9.322787782406721e-08 0.0 9.322787782406721e-08 0.0 -0.9999999999999957 1.2246467991473478e-16
981207801.9504877 -0.9999999999999957 1.2246467991473478e-16 9.288712904216347e-08 0.0 9.288712904216347e-08 0.0 -0.9999999999999957 1.2246467991473478e-16
981295323.8309579 -0.9999999999999957 1.2246467991473478e-16 9.254790047929399e-08 0.0 9.254790047929399e-08 0.0 -0.9999999999999957 1.2246467991473478e-16
981382845.7114279 -0.9999999999999957 1.2246467991473478e-16 9.221018414522448e-08 0.0 9.221018414522448e-08 0.0 -0.9999999999999957 1.2246467991473478e-16
981470367.591898 -0.9999999999999958 1.224646799147348e-16 9.187397209800442e-08 0.0 9.187397209800442e-08 0.0 -0.9999999999999958 1.224646799147348e-16
981557889.4723681 -0.9999999999999958 1.224646799147348e-16 9.153925644363755e-08 0.0 9.153925644363755e-08 0.0 -0.9999999999999958 1.224646799147348e-16
981645411.3528383 -0.9999999999999958 1.224646799147348e-16 9.120602933575801e-08 0.0 9.120602933575801e-08 0.0 -0.9999999999999958 1.224646799147348e-16
981732933.2333083 -0.9999999999999959 1.2246467991473483e-16 9.087428297530321e-08 0.0 9.087428297530321e-08 0.0 -0.9999999999999959 1.2246467991473483e-16
981820455.1137785 -0.9999999999999959 1.2246467991473483e-16 9.054400961019103e-08 0.0 9.054400961019103e-08 0.0 -0.9999999999999959 1.2246467991473483e-16
981907976.9942486 -0.9999999999999959 1.2246467991473483e-16 9.021520153500102e-08 0.0 9.021520153500102e-08 0.0 -0.9999999999999959 1.2246467991473483e-16
981995498.8747187 -0.9999999999999959 1.2246467991473483e-16 8.988785109065973e-08 0.0 8.988785109065973e-08 0.0 -0.9999999999999959 1.2246467991473483e-16
982083020.7551888 -0.999999999999996 1.2246467991473483e-16 8.956195066412012e-08 0.0 8.956195066412012e-08 0.0 -0.999999999999996 1.2246467991473483e-16
982170542.635659 -0.999999999999996 1.2246467991473483e-16 8.923749268805583e-08 0.0 8.923749268805583e-08 0.0 -0.999999999999996 1.2246467991473483e-16
982258064.516129 -0.999999999999996 1.2246467991473483e-16 8.891446964054681e-08 0.0 8.891446964054681e-08 0.0 -0.999999999999996 1.2246467991473483e-16
982345586.3965992 -0.999999999999996 1.2246467991473483e-16 8.859287404477183e-08 0.0 8.859287404477183e-08 0.0 -0.999999999999996 1.2246467991473483e-16
982433108.2770693 -0.9999999999999961 1.2246467991473485e-16 8.827269846870423e-08 0.0 8.827269846870423e-08 0.0 -0.9999999999999961 1.2246467991473485e-16
982520630.1575395 -0.9999999999999961 1.2246467991473485e-16 8.79539355248096e-08 0.0 8.79539355248096e-08 0.0 -0.9999999999999961 1.2246467991473485e-16
982608152.0380095 -0.9999999999999961 1.2246467991473485e-16 8.763657786974372e-08 0.0 8.763657786974372e-08 0.0 -0.9999999999999961 1.2246467991473485e-16
982695673.9184797 -0.9999999999999961 1.2246467991473485e-16 8.732061820405288e-08 0.0 8.732061820405288e-08 0.0 -0.9999999999999961 1.2246467991473485e-16
982783195.7989498 -0.9999999999999962 1.2246467991473485e-16 8.700604927187932e-08 0.0 8.700604927187932e-08 0.0 -0.9999999999999962 1.2246467991473485e-16
982870717.6794199 -0.9999999999999962 1.2246467991473485e-16 8.669286386066908e-08 0.0 8.669286386066908e-08 0.0 -0.9999999999999962 1.2246467991473485e-16
982958239.55989 -0.9999999999999962 1.2246467991473485e-16 8.638105480087408e-08 0.0 8.638105480087408e-08 0.0 -0.9999999999999962 1.2246467991473485e-16
983045761.4403602 -0.9999999999999962 1.2246467991473485e-16 8.607061496566905e-08 0.0 8.607061496566905e-08 0.0 -0.9999999999999962 1.2246467991473485e-16
983133283.3208301 -0.9999999999999963 1.2246467991473488e-16 8.576153727066129e-08 0.0 8.576153727066129e-08 0.0 -0.9999999999999963 1.2246467991473488e-16
983220805.2013003 -0.9999999999999963 1.2246467991473488e-16 8.545381467360212e-08 0.0 8.545381467360212e-08 0.0 -0.9999999999999963 1.2246467991473488e-16
983308327.0817704 -0.9999999999999963 1.2246467991473488e-16 8.514744017410952e-08 0.0 8.514744017410952e-08 0.0 -0.9999999999999963 1.2246467991473488e-16
983395848.9622406 -0.9999999999999963 1.2246467991473488e-16 8.484240681338375e-08 0.0 8.484240681338375e-08 0.0 -0.9999999999999963 1.2246467991473488e-16
983483370.8427106 -0.9999999999999964 1.2246467991473488e-16 8.45387076739293e-08 0.0 8.45387076739293e-08 0.0 -0.9999999999999964 1.2246467991473488e-16
983570892.7231808 -0.9999999999999964 1.2246467991473488e-16 8.423633587927627e-08 0.0 8.423633587927627e-08 0.0 -0.9999999999999964 1.2246467991473488e-16
983658414.6036509 -0.9999999999999964 1.2246467991473488e-16 8.393528459370857e-08 0.0 8.393528459370857e-08 0.0 -0.9999999999999964 1.2246467991473488e-16
983745936.484121 -0.9999999999999964 1.2246467991473488e-16 8.36355470219887e-08 0.0 8.36355470219887e-08 0.0 -0.9999999999999964 1.2246467991473488e-16
983833458.3645911 -0.9999999999999964 1.2246467991473488e-16 8.333711640908712e-08 0.0 8.333711640908712e-08 0.0 -0.9999999999999964 1.2246467991473488e-16
983920980.2450613 -0.9999999999999966 1.224646799147349e-16 8.303998603991548e-08 0.0 8.303998603991548e-08 0.0 -0.9999999999999966 1.224646799147349e-16
984008502.1255313 -0.9999999999999966 1.224646799147349e-16 8.27441492390583e-08 0.0 8.27441492390583e-08 0.0 -0.9999999999999966 1.224646799147349e-16
984096024.0060015 -0.9999999999999966 1.224646799147349e-16 8.244959937050733e-08 0.0 8.244959937050733e-08 0.0 -0.9999999999999966 1.224646799147349e-16
984183545.8864716 -0.9999999999999966 1.224646799147349e-16 8.215632983740167e-08 0.0 8.215632983740167e-08 0.0 -0.9999999999999966 1.224646799147349e-16
984271067.7669418 -0.9999999999999967 1.224646799147349e-16 8.186433408176412e-08 0.0 8.186433408176412e-08 0.0 -0.9999999999999967 1.224646799147349e-16
984358589.6474118 -0.9999999999999967 1.224646799147349e-16 8.15736055842444e-08 0.0 8.15736055842444e-08 0.0 -0.9999999999999967 1.224646799147349e-16
984446111.527882 -0.9999999999999967 1.224646799147349e-16 8.128413786386046e-08 0.0 8.128413786386046e-08 0.0 -0.9999999999999967 1.224646799147349e-16
984533633.4083521 -0.9999999999999967 1.224646799147349e-16 8.099592447774426e-08 0.0 8.099592447774426e-08 0.0 -0.9999999999999967 1.224646799147349e-16
984621155.2888222 -0.9999999999999967 1.224646799147349e-16 8.070895902088993e-08 0.0 8.070895902088993e-08 0.0 -0.9999999999999967 1.224646799147349e-16
984708677.1692923 -0.9999999999999968 1.2246467991473493e-16 8.042323512589861e-08 0.0 8.042323512589861e-08 0.0 -0.9999999999999968 1.2246467991473493e-16
984796199.0497625 -0.9999999999999968 1.2246467991473493e-16 8.01387464627336e-08 0.0 8.01387464627336e-08 0.0 -0.9999999999999968 1.2246467991473493e-16
984883720.9302325 -0.9999999999999968 1.2246467991473493e-16 7.985548673846999e-08 0.0 7.985548673846999e-08 0.0 -0.9999999999999968 1.2246467991473493e-16
984971242.8107027 -0.9999999999999968 1.2246467991473493e-16 7.957344969704862e-08 0.0 7.957344969704862e-08 0.0 -0.9999999999999968 1.2246467991473493e-16
985058764.6911728 -0.9999999999999968 1.2246467991473493e-16 7.929262911903523e-08 0.0 7.929262911903523e-08 0.0 -0.9999999999999968 1.2246467991473493e-16
985146286.571643 -0.9999999999999969 1.2246467991473495e-16 7.90130188213739e-08 0.0 7.90130188213739e-08 0.0 -0.9999999999999969 1.2246467991473495e-16
985233808.452113 -0.9999999999999969 1.2246467991473495e-16 7.873461265715078e-08 0.0 7.873461265715078e-08 0.0 -0.9999999999999969 1.2246467991473495e-16
985321330.3325832 -0.9999999999999969 1.2246467991473495e-16 7.845740451535195e-08 0.0 7.845740451535195e-08 0.0 -0.9999999999999969 1.2246467991473495e-16
985408852.2130533 -0.9999999999999969 1.2246467991473495e-16 7.818138832062931e-08 0.0 7.818138832062931e-08 0.0 -0.9999999999999969 1.2246467991473495e-16
985496374.0935234 -0.9999999999999969 1.2246467991473495e-16 7.790655803306512e-08 0.0 7.790655803306512e-08 0.0 -0.9999999999999969 1.2246467991473495e-16
985583895.9739935 -0.999999999999997 1.2246467991473495e-16 7.76329076479365e-08 0.0 7.76329076479365e-08 0.0 -0.999999999999997 1.2246467991473495e-16
985671417.8544637 -0.999999999999997 1.2246467991473495e-16 7.736043119548496e-08 0.0 7.736043119548496e-08 0.0 -0.999999999999997 1.2246467991473495e-16
985758939.7349337 -0.999999999999997 1.2246467991473495e-16 7.70891227406888e-08 0.0 7.70891227406888e-08 0.0 -0.999999999999997 1.2246467991473495e-16
985846461.6154039 -0.999999999999997 1.2246467991473495e-16 7.681897638302983e-08 0.0 7.681897638302983e-08 0.0 -0.999999999999997 1.2246467991473495e-16
985933983.495874 -0.999999999999997 1.2246467991473495e-16 7.654998625627299e-08 0.0 7.654998625627299e-08 0.0 -0.999999999999997 1.2246467991473495e-16
986021505.3763441 -0.9999999999999971 1.2246467991473498e-16 7.628214652823513e-08 0.0 7.628214652823513e-08 0.0 -0.9999999999999971 1.2246467991473498e-16
986109027.2568142 -0.9999999999999971 1.2246467991473498e-16 7.601545140056527e-08 0.0 7.601545140056527e-08 0.0 -0.9999999999999971 1.2246467991473498e-16
986196549.1372844 -0.9999999999999971 1.2246467991473498e-16 7.574989510852313e-08 0.0 7.574989510852313e-08 0.0 -0.9999999999999971 1.2246467991473498e-16
986284071.0177546 -0.9999999999999971 1.2246467991473498e-16 7.548547192075777e-08 0.0 7.548547192075777e-08 0.0 -0.9999999999999971 1.2246467991473498e-16
986371592.8982246 -0.9999999999999971 1.2246467991473498e-16 7.522217613909027e-08 0.0 7.522217613909027e-08 0.0 -0.9999999999999971 1.2246467991473498e-16
986459114.7786947 -0.9999999999999971 1.2246467991473498e-16 7.496000209829449e-08 0.0 7.496000209829449e-08 0.0 -0.9999999999999971 1.2246467991473498e-16
986546636.6591649 -0.9999999999999972 1.2246467991473498e-16 7.469894416588444e-08 0.0 7.469894416588444e-08 0.0 -0.9999999999999972 1.2246467991473498e-16
986634158.539635 -0.9999999999999972 1.2246467991473498e-16 7.443899674190015e-08 0.0 7.443899674190015e-08 0.0 -0.9999999999999972 1.2246467991473498e-16
986721680.4201051 -0.9999999999999972 1.2246467991473498e-16 7.418015425869374e-08 0.0 7.418015425869374e-08 0.0 -0.9999999999999972 1.2246467991473498e-16
986809202.3005753 -0.9999999999999972 1.2246467991473498e-16 7.392241118072096e-08 0.0 7.392241118072096e-08 0.0 -0.9999999999999972 1.2246467991473498e-16
986896724.1810453 -0.9999999999999972 1.2246467991473498e-16 7.36657620043309e-08 0.0 7.36657620043309e-08 0.0 -0.9999999999999972 1.2246467991473498e-16
986984246.0615155 -0.9999999999999972 1.2246467991473498e-16 7.34102012575582e-08 0.0 7.34102012575582e-08 0.0 -0.9999999999999972 1.2246467991473498e-16
987071767.9419856 -0.9999999999999973 1.22464679914735e-16 7.315572349991842e-08 0.0 7.315572349991842e-08 0.0 -0.9999999999999973 1.22464679914735e-16
987159289.8224558 -0.9999999999999973 1.22464679914735e-16 7.290232332220132e-08 0.0 7.290232332220132e-08 0.0 -0.9999999999999973 1.22464679914735e-16
987246811.7029258 -0.9999999999999973 1.22464679914735e-16 7.264999534627088e-08 0.0 7.264999534627088e-08 0.0 -0.9999999999999973 1.22464679914735e-16
987334333.583396 -0.9999999999999973 1.22464679914735e-16 7.239873422485927e-08 0.0 7.239873422485927e-08 0.0 -0.9999999999999973 1.22464679914735e-16
987421855.4638661 -0.9999999999999973 1.22464679914735e-16 7.214853464137013e-08 0.0 7.214853464137013e-08 0.0 -0.9999999999999973 1.22464679914735e-16
987509377.3443362 -0.9999999999999973 1.22464679914735e-16 7.18993913096805e-08 0.0 7.18993913096805e-08 0.0 -0.9999999999999973 1.22464679914735e-16
987596899.2248063 -0.9999999999999974 1.22464679914735e-16 7.165129897393914e-08 0.0 7.165129897393914e-08 0.0 -0.9999999999999974 1.22464679914735e-16
987684421.1052765 -0.9999999999999974 1.22464679914735e-16 7.140425240837565e-08 0.0 7.140425240837565e-08 0.0 -0.9999999999999974 1.22464679914735e-16
987771942.9857465 -0.9999999999999974 1.22464679914735e-16 7.1158246417103e-08 0.0 7.1158246417103e-08 0.0 -0.9999999999999974 1.22464679914735e-16
987859464.8662167 -0.9999999999999974 1.22464679914735e-16 7.091327583392432e-08 0.0 7.091327583392432e-08 0.0 -0.9999999999999974 1.22464679914735e-16
987946986.7466867 -0.9999999999999974 1.22464679914735e-16 7.066933552214468e-08 0.0 7.066933552214468e-08 0.0 -0.9999999999999974 1.22464679914735e-16
988034508.6271569 -0.9999999999999974 1.22464679914735e-16 7.042642037437568e-08 0.0 7.042642037437568e-08 0.0 -0.9999999999999974 1.22464679914735e-16
988122030.5076269 -0.9999999999999976 1.2246467991473502e-16 7.018452531235155e-08 0.0 7.018452531235155e-08 0.0 -0.9999999999999976 1.2246467991473502e-16
988209552.388097 -0.9999999999999976 1.2246467991473502e-16 6.994364528673679e-08 0.0 6.994364528673679e-08 0.0 -0.9999999999999976 1.2246467991473502e-16
988297074.2685672 -0.9999999999999976 1.2246467991473502e-16 6.970377527694482e-08 0.0 6.970377527694482e-08 0.0 -0.9999999999999976 1.2246467991473502e-16
988384596.1490372 -0.9999999999999976 1.2246467991473502e-16 6.946491029094928e-08 0.0 6.946491029094928e-08 0.0 -0.9999999999999976 1.2246467991473502e-16
988472118.0295074 -0.9999999999999976 1.2246467991473502e-16 6.922704536510174e-08 0.0 6.922704536510174e-08 0.0 -0.9999999999999976 1.2246467991473502e-16
988559639.9099776 -0.9999999999999976 1.2246467991473502e-16 6.899017556395075e-08 0.0 6.899017556395075e-08 0.0 -0.9999999999999976 1.2246467991473502e-16
988647161.7904476 -0.9999999999999976 1.2246467991473502e-16 6.875429598005933e-08 0.0 6.875429598005933e-08 0.0 -0.9999999999999976 1.2246467991473502e-16
988734683.6709177 -0.9999999999999977 1.2246467991473502e-16 6.851940173382485e-08 0.0 6.851940173382485e-08 0.0 -0.9999999999999977 1.2246467991473502e-16
988822205.5513879 -0.9999999999999977 1.2246467991473502e-16 6.828548797330313e-08 0.0 6.828548797330313e-08 0.0 -0.9999999999999977 1.2246467991473502e-16
988909727.4318581 -0.9999999999999977 1.2246467991473502e-16 6.80525498740286e-08 0.0 6.80525498740286e-08 0.0 -0.9999999999999977 1.2246467991473502e-16
988997249.3123281 -0.9999999999999977 1.2246467991473502e-16 6.782058263884039e-08 0.0 6.782058263884039e-08 0.0 -0.9999999999999977 1.2246467991473502e-16
989084771.1927983 -0.9999999999999977 1.2246467991473502e-16 6.75895814977065e-08 0.0 6.75895814977065e-08 0.0 -0.9999999999999977 1.2246467991473502e-16
989172293.0732684 -0.9999999999999977 1.2246467991473502e-16 6.73595417075522e-08 0.0 6.73595417075522e-08 0.0 -0.9999999999999977 1.2246467991473502e-16
989259814.9537385 -0.9999999999999977 1.2246467991473502e-16 6.713045855208553e-08 0.0 6.713045855208553e-08 0.0 -0.9999999999999977 1.2246467991473502e-16
989347336.8342086 -0.9999999999999978 1.2246467991473505e-16 6.690232734162827e-08 0.0 6.690232734162827e-08 0.0 -0.9999999999999978 1.2246467991473505e-16
989434858.7146788 -0.9999999999999978 1.2246467991473505e-16 6.667514341294563e-08 0.0 6.667514341294563e-08 0.0 -0.9999999999999978 1.2246467991473505e-16
989522380.5951488 -0.9999999999999978 1.2246467991473505e-16 6.644890212907822e-08 0.0 6.644890212907822e-08 0.0 -0.9999999999999978 1.2246467991473505e-16
989609902.4756188 -0.9999999999999978 1.2246467991473505e-16 6.622359887917444e-08 0.0 6.622359887917444e-08 0.0 -0.9999999999999978 1.2246467991473505e-16
989697424.356089 -0.9999999999999978 1.2246467991473505e-16 6.599922907832375e-08 0.0 6.599922907832375e-08 0.0 -0.9999999999999978 1.2246467991473505e-16
989784946.2365592 -0.9999999999999978 1.2246467991473505e-16 6.57757881673932e-08 0.0 6.57757881673932e-08 0.0 -0.9999999999999978 1.2246467991473505e-16
989872468.1170292 -0.9999999999999978 1.2246467991473505e-16 6.555327161286326e-08 0.0 6.555327161286326e-08 0.0 -0.9999999999999978 1.2246467991473505e-16
989959989.9974993 -0.9999999999999979 1.2246467991473507e-16 6.533167490666388e-08 0.0 6.533167490666388e-08 0.0 -0.9999999999999979 1.2246467991473507e-16
990047511.8779695 -0.9999999999999979 1.2246467991473507e-16 6.511099356601523e-08 0.0 6.511099356601523e-08 0.0 -0.9999999999999979 1.2246467991473507e-16
990135033.7584395 -0.9999999999999979 1.2246467991473507e-16 6.489122313326642e-08 0.0 6.489122313326642e-08 0.0 -0.9999999999999979 1.2246467991473507e-16
990222555.6389097 -0.9999999999999979 1.2246467991473507e-16 6.46723591757357e-08 0.0 6.46723591757357e-08 0.0 -0.9999999999999979 1.2246467991473507e-16
990310077.5193799 -0.9999999999999979 1.2246467991473507e-16 6.445439728555347e-08 0.0 6.445439728555347e-08 0.0 -0.9999999999999979 1.2246467991473507e-16
990397599.3998499 -0.9999999999999979 1.2246467991473507e-16 6.423733307950514e-08 0.0 6.423733307950514e-08 0.0 -0.9999999999999979 1.2246467991473507e-16
990485121.28032 -0.9999999999999979 1.2246467991473507e-16 6.40211621988747e-08 0.0 6.40211621988747e-08 0.0 -0.9999999999999979 1.2246467991473507e-16
990572643.1607902 -0.9999999999999979 1.2246467991473507e-16 6.380588030929082e-08 0.0 6.380588030929082e-08 0.0 -0.9999999999999979 1.2246467991473507e-16
990660165.0412604 -0.999999999999998 1.2246467991473507e-16 6.359148310057348e-08 0.0 6.359148310057348e-08 0.0 -0.999999999999998 1.2246467991473507e-16
990747686.9217304 -0.999999999999998 1.2246467991473507e-16 6.337796628658036e-08 0.0 6.337796628658036e-08 0.0 -0.999999999999998 1.2246467991473507e-16
990835208.8022006 -0.999999999999998 1.2246467991473507e-16 6.316532560505537e-08 0.0 6.316532560505537e-08 0.0 -0.999999999999998 1.2246467991473507e-16
990922730.6826707 -0.999999999999998 1.2246467991473507e-16 6.295355681747982e-08 0.0 6.295355681747982e-08 0.0 -0.999999999999998 1.2246467991473507e-16
991010252.5631407 -0.999999999999998 1.2246467991473507e-16 6.274265570892167e-08 0.0 6.274265570892167e-08 0.0 -0.999999999999998 1.2246467991473507e-16
991097774.4436109 -0.999999999999998 1.2246467991473507e-16 6.253261808788738e-08 0.0 6.253261808788738e-08 0.0 -0.999999999999998 1.2246467991473507e-16
991185296.3240811 -0.999999999999998 1.2246467991473507e-16 6.232343978617531e-08 0.0 6.232343978617531e-08 0.0 -0.999999999999998 1.2246467991473507e-16
991272818.2045511 -0.999999999999998 1.2246467991473507e-16 6.21151166587292e-08 0.0 6.21151166587292e-08 0.0 -0.999999999999998 1.2246467991473507e-16
991360340.0850213 -0.999999999999998 1.2246467991473507e-16 6.19076445834916e-08 0.0 6.19076445834916e-08 0.0 -0.999999999999998 1.2246467991473507e-16
991447861.9654914 -0.9999999999999981 1.224646799147351e-16 6.170101946126307e-08 0.0 6.170101946126307e-08 0.0 -0.9999999999999981 1.224646799147351e-16
991535383.8459616 -0.9999999999999981 1.224646799147351e-16 6.14952372155555e-08 0.0 6.14952372155555e-08 0.0 -0.9999999999999981 1.224646799147351e-16
991622905.7264316 -0.9999999999999981 1.224646799147351e-16 6.129029379245151e-08 0.0 6.129029379245151e-08 0.0 -0.9999999999999981 1.224646799147351e-16
991710427.6069018 -0.9999999999999981 1.224646799147351e-16 6.108618516046264e-08 0.0 6.108618516046264e-08 0.0 -0.9999999999999981 1.224646799147351e-16
991797949.4873719 -0.9999999999999981 1.224646799147351e-16 6.088290731039093e-08 0.0 6.088290731039093e-08 0.0 -0.9999999999999981 1.224646799147351e-16
991885471.367842 -0.9999999999999981 1.224646799147351e-16 6.068045625518722e-08 0.0 6.068045625518722e-08 0.0 -0.9999999999999981 1.224646799147351e-16
991972993.2483121 -0.9999999999999981 1.224646799147351e-16 6.04788280298139e-08 0.0 6.04788280298139e-08 0.0 -0.9999999999999981 1.224646799147351e-16
992060515.1287823 -0.9999999999999981 1.224646799147351e-16 6.02780186911082e-08 0.0 6.02780186911082e-08 0.0 -0.9999999999999981 1.224646799147351e-16
992148037.0092523 -0.9999999999999981 1.224646799147351e-16 6.007802431764605e-08 0.0 6.007802431764605e-08 0.0 -0.9999999999999981 1.224646799147351e-16
992235558.8897225 -0.9999999999999982 1.224646799147351e-16 5.987884100960397e-08 0.0 5.987884100960397e-08 0.0 -0.9999999999999982 1.224646799147351e-16
992323080.7701926 -0.9999999999999982 1.224646799147351e-16 5.968046488862898e-08 0.0 5.968046488862898e-08 0.0 -0.9999999999999982 1.224646799147351e-16
992410602.6506628 -0.9999999999999982 1.224646799147351e-16 5.948289209770135e-08 0.0 5.948289209770135e-08 0.0 -0.9999999999999982 1.224646799147351e-16
992498124.5311328 -0.9999999999999982 1.224646799147351e-16 5.928611880100382e-08 0.0 5.928611880100382e-08 0.0 -0.9999999999999982 1.224646799147351e-16
992585646.411603 -0.9999999999999982 1.224646799147351e-16 5.909014118378909e-08 0.0 5.909014118378909e-08 0.0 -0.9999999999999982 1.224646799147351e-16
992673168.2920731 -0.9999999999999982 1.224646799147351e-16 5.889495545225007e-08 0.0 5.889495545225007e-08 0.0 -0.9999999999999982 1.224646799147351e-16
992760690.1725432 -0.9999999999999982 1.224646799147351e-16 5.870055783338956e-08 0.0 5.870055783338956e-08 0.0 -0.9999999999999982 1.224646799147351e-16
992848212.0530133 -0.9999999999999982 1.224646799147351e-16 5.850694457489022e-08 0.0 5.850694457489022e-08 0.0 -0.9999999999999982 1.224646799147351e-16
992935733.9334835 -0.9999999999999982 1.224646799147351e-16 5.831411194498792e-08 0.0 5.831411194498792e-08 0.0 -0.9999999999999982 1.224646799147351e-16
993023255.8139535 -0.9999999999999983 1.2246467991473512e-16 5.8122056232344685e-08 0.0 5.8122056232344685e-08 0.0 -0.9999999999999983 1.2246467991473512e-16
993110777.6944237 -0.9999999999999983 1.2246467991473512e-16 5.793077374592052e-08 0.0 5.793077374592052e-08 0.0 -0.9999999999999983 1.2246467991473512e-16
993198299.5748938 -0.9999999999999983 1.2246467991473512e-16 5.7740260814849715e-08 0.0 5.7740260814849715e-08 0.0 -0.9999999999999983 1.2246467991473512e-16
993285821.4553639 -0.9999999999999983 1.2246467991473512e-16 5.755051378831669e-08 0.0 5.755051378831669e-08 0.0 -0.9999999999999983 1.2246467991473512e-16
993373343.335834 -0.9999999999999983 1.2246467991473512e-16 5.7361529035429476e-08 0.0 5.7361529035429476e-08 0.0 -0.9999999999999983 1.2246467991473512e-16
993460865.2163042 -0.9999999999999983 1.2246467991473512e-16 5.717330294510012e-08 0.0 5.717330294510012e-08 0.0 -0.9999999999999983 1.2246467991473512e-16
993548387.0967743 -0.9999999999999983 1.2246467991473512e-16 5.698583192592051e-08 0.0 5.698583192592051e-08 0.0 -0.9999999999999983 1.2246467991473512e-16
993635908.9772444 -0.9999999999999983 1.2246467991473512e-16 5.679911240604275e-08 0.0 5.679911240604275e-08 0.0 -0.9999999999999983 1.2246467991473512e-16
993723430.8577145 -0.9999999999999983 1.2246467991473512e-16 5.661314083305693e-08 0.0 5.661314083305693e-08 0.0 -0.9999999999999983 1.2246467991473512e-16
993810952.7381847 -0.9999999999999983 1.2246467991473512e-16 5.642791367387268e-08 0.0 5.642791367387268e-08 0.0 -0.9999999999999983 1.2246467991473512e-16
993898474.6186547 -0.9999999999999984 1.2246467991473512e-16 5.6243427414601654e-08 0.0 5.6243427414601654e-08 0.0 -0.9999999999999984 1.2246467991473512e-16
993985996.4991249 -0.9999999999999984 1.2246467991473512e-16 5.605967856043647e-08 0.0 5.605967856043647e-08 0.0 -0.9999999999999984 1.2246467991473512e-16
994073518.379595 -0.9999999999999984 1.2246467991473512e-16 5.5876663635537145e-08 0.0 5.5876663635537145e-08 0.0 -0.9999999999999984 1.2246467991473512e-16
994161040.2600651 -0.9999999999999984 1.2246467991473512e-16 5.5694379182912544e-08 0.0 5.5694379182912544e-08 0.0 -0.9999999999999984 1.2246467991473512e-16
994248562.1405352 -0.9999999999999984 1.2246467991473512e-16 5.5512821764305544e-08 0.0 5.5512821764305544e-08 0.0 -0.9999999999999984 1.2246467991473512e-16
994336084.0210054 -0.9999999999999984 1.2246467991473512e-16 5.533198796007787e-08 0.0 5.533198796007787e-08 0.0 -0.9999999999999984 1.2246467991473512e-16
994423605.9014754 -0.9999999999999984 1.2246467991473512e-16 5.515187436909722e-08 0.0 5.515187436909722e-08 0.0 -0.9999999999999984 1.2246467991473512e-16
994511127.7819455 -0.9999999999999984 1.2246467991473512e-16 5.4972477608623415e-08 0.0 5.4972477608623415e-08 0.0 -0.9999999999999984 1.2246467991473512e-16
994598649.6624156 -0.9999999999999984 1.2246467991473512e-16 5.4793794314195346e-08 0.0 5.4793794314195346e-08 0.0 -0.9999999999999984 1.2246467991473512e-16
994686171.5428858 -0.9999999999999984 1.2246467991473512e-16 5.46158211395208e-08 0.0 5.46158211395208e-08 0.0 -0.9999999999999984 1.2246467991473512e-16
994773693.4233558 -0.9999999999999984 1.2246467991473512e-16 5.44385547563653e-08 0.0 5.44385547563653e-08 0.0 -0.9999999999999984 1.2246467991473512e-16
994861215.303826 -0.9999999999999984 1.2246467991473512e-16 5.426199185444071e-08 0.0 5.426199185444071e-08 0.0 -0.9999999999999984 1.2246467991473512e-16
994948737.1842961 -0.9999999999999986 1.2246467991473515e-16 5.408612914129691e-08 0.0 5.408612914129691e-08 0.0 -0.9999999999999986 1.2246467991473515e-16
995036259.0647662 -0.9999999999999986 1.2246467991473515e-16 5.3910963342213874e-08 0.0 5.3910963342213874e-08 0.0 -0.9999999999999986 1.2246467991473515e-16
995123780.9452363 -0.9999999999999986 1.2246467991473515e-16 5.3736491200091516e-08 0.0 5.3736491200091516e-08 0.0 -0.9999999999999986 1.2246467991473515e-16
995211302.8257065 -0.9999999999999986 1.2246467991473515e-16 5.3562709475345504e-08 0.0 5.3562709475345504e-08 0.0 -0.9999999999999986 1.2246467991473515e-16
995298824.7061766 -0.9999999999999986 1.2246467991473515e-16 5.3389614945798583e-08 0.0 5.3389614945798583e-08 0.0 -0.9999999999999986 1.2246467991473515e-16
995386346.5866467 -0.9999999999999986 1.2246467991473515e-16 5.321720440657631e-08 0.0 5.321720440657631e-08 0.0 -0.9999999999999986 1.2246467991473515e-16
995473868.4671168 -0.9999999999999986 1.2246467991473515e-16 5.3045474669999774e-08 0.0 5.3045474669999774e-08 0.0 -0.9999999999999986 1.2246467991473515e-16
995561390.347587 -0.9999999999999986 1.2246467991473515e-16 5.287442256548468e-08 0.0 5.287442256548468e-08 0.0 -0.9999999999999986 1.2246467991473515e-16
995648912.228057 -0.9999999999999986 1.2246467991473515e-16 5.270404493943604e-08 0.0 5.270404493943604e-08 0.0 -0.9999999999999986 1.2246467991473515e-16
995736434.1085272 -0.9999999999999986 1.2246467991473515e-16 5.253433865514389e-08 0.0 5.253433865514389e-08 0.0 -0.9999999999999986 1.2246467991473515e-16
995823955.9889973 -0.9999999999999986 1.2246467991473515e-16 5.236530059268359e-08 0.0 5.236530059268359e-08 0.0 -0.9999999999999986 1.2246467991473515e-16
995911477.8694674 -0.9999999999999986 1.2246467991473515e-16 5.219692764881377e-08 0.0 5.219692764881377e-08 0.0 -0.9999999999999986 1.2246467991473515e-16
995998999.7499375 -0.9999999999999987 1.2246467991473515e-16 5.2029216736873406e-08 0.0 5.2029216736873406e-08 0.0 -0.9999999999999987 1.2246467991473515e-16
996086521.6304076 -0.9999999999999987 1.2246467991473515e-16 5.186216478668551e-08 0.0 5.186216478668551e-08 0.0 -0.9999999999999987 1.2246467991473515e-16
996174043.5108777 -0.9999999999999987 1.2246467991473515e-16 5.169576874445356e-08 0.0 5.169576874445356e-08 0.0 -0.9999999999999987 1.2246467991473515e-16
996261565.3913478 -0.9999999999999987 1.2246467991473515e-16 5.153002557266578e-08 0.0 5.153002557266578e-08 0.0 -0.9999999999999987 1.2246467991473515e-16
996349087.2718179 -0.9999999999999987 1.2246467991473515e-16 5.1364932249996184e-08 0.0 5.1364932249996184e-08 0.0 -0.9999999999999987 1.2246467991473515e-16
996436609.1522881 -0.9999999999999987 1.2246467991473515e-16 5.1200485771205646e-08 0.0 5.1200485771205646e-08 0.0 -0.9999999999999987 1.2246467991473515e-16
996524131.0327581 -0.9999999999999987 1.2246467991473515e-16 5.1036683147047855e-08 0.0 5.1036683147047855e-08 0.0 -0.9999999999999987 1.2246467991473515e-16
996611652.9132283 -0.9999999999999987 1.2246467991473515e-16 5.0873521404170214e-08 0.0 5.0873521404170214e-08 0.0 -0.9999999999999987 1.2246467991473515e-16
996699174.7936984 -0.9999999999999987 1.2246467991473515e-16 5.071099758502094e-08 0.0 5.071099758502094e-08 0.0 -0.9999999999999987 1.2246467991473515e-16
996786696.6741685 -0.9999999999999987 1.2246467991473515e-16 5.054910874775251e-08 0.0 5.054910874775251e-08 0.0 -0.9999999999999987 1.2246467991473515e-16
996874218.5546386 -0.9999999999999987 1.2246467991473515e-16 5.0387851966127265e-08 0.0 5.0387851966127265e-08 0.0 -0.9999999999999987 1.2246467991473515e-16
996961740.4351088 -0.9999999999999987 1.2246467991473515e-16 5.022722432942526e-08 0.0 5.022722432942526e-08 0.0 -0.9999999999999987 1.2246467991473515e-16
997049262.3155789 -0.9999999999999987 1.2246467991473515e-16 5.006722294235102e-08 0.0 5.006722294235102e-08 0.0 -0.9999999999999987 1.2246467991473515e-16
997136784.196049 -0.9999999999999988 1.2246467991473517e-16 4.990784492493948e-08 0.0 4.990784492493948e-08 0.0 -0.9999999999999988 1.2246467991473517e-16
997224306.0765191 -0.9999999999999988 1.2246467991473517e-16 4.9749087412466124e-08 0.0 4.9749087412466124e-08 0.0 -0.9999999999999988 1.2246467991473517e-16
997311827.9569893 -0.9999999999999988 1.2246467991473517e-16 4.9590947555354244e-08 0.0 4.9590947555354244e-08 0.0 -0.9999999999999988 1.2246467991473517e-16
997399349.8374593 -0.9999999999999988 1.2246467991473517e-16 4.9433422519086743e-08 0.0 4.9433422519086743e-08 0.0 -0.9999999999999988 1.2246467991473517e-16
997486871.7179295 -0.9999999999999988 1.2246467991473517e-16 4.927650948411382e-08 0.0 4.927650948411382e-08 0.0 -0.9999999999999988 1.2246467991473517e-16
997574393.5983996 -0.9999999999999988 1.2246467991473517e-16 4.912020564576475e-08 0.0 4.912020564576475e-08 0.0 -0.9999999999999988 1.2246467991473517e-16
997661915.4788697 -0.9999999999999988 1.2246467991473517e-16 4.8964508214159434e-08 0.0 4.8964508214159434e-08 0.0 -0.9999999999999988 1.2246467991473517e-16
997749437.3593398 -0.9999999999999988 1.2246467991473517e-16 4.880941441411901e-08 0.0 4.880941441411901e-08 0.0 -0.9999999999999988 1.2246467991473517e-16
997836959.23981 -0.9999999999999988 1.2246467991473517e-16 4.865492148507985e-08 0.0 4.865492148507985e-08 0.0 -0.9999999999999988 1.2246467991473517e-16
997924481.1202801 -0.9999999999999988 1.2246467991473517e-16 4.850102668100621e-08 0.0 4.850102668100621e-08 0.0 -0.9999999999999988 1.2246467991473517e-16
998012003.0007502 -0.9999999999999988 1.2246467991473517e-16 4.8347727270302527e-08 0.0 4.8347727270302527e-08 0.0 -0.9999999999999988 1.2246467991473517e-16
998099524.8812203 -0.9999999999999988 1.2246467991473517e-16 4.819502053572901e-08 0.0 4.819502053572901e-08 0.0 -0.9999999999999988 1.2246467991473517e-16
998187046.7616905 -0.9999999999999988 1.2246467991473517e-16 4.8042903774316473e-08 0.0 4.8042903774316473e-08 0.0 -0.9999999999999988 1.2246467991473517e-16
998274568.6421605 -0.9999999999999988 1.2246467991473517e-16 4.7891374297280376e-08 0.0 4.7891374297280376e-08 0.0 -0.9999999999999988 1.2246467991473517e-16
998362090.5226307 -0.9999999999999988 1.2246467991473517e-16 4.7740429429937715e-08 0.0 4.7740429429937715e-08 0.0 -0.9999999999999988 1.2246467991473517e-16
998449612.4031008 -0.9999999999999989 1.2246467991473517e-16 4.7590066511623695e-08 0.0 4.7590066511623695e-08 0.0 -0.9999999999999989 1.2246467991473517e-16
998537134.2835709 -0.9999999999999989 1.2246467991473517e-16 4.744028289560718e-08 0.0 4.744028289560718e-08 0.0 -0.9999999999999989 1.2246467991473517e-16
998624656.164041 -0.9999999999999989 1.2246467991473517e-16 4.729107594900981e-08 0.0 4.729107594900981e-08 0.0 -0.9999999999999989 1.2246467991473517e-16
998712178.0445112 -0.9999999999999989 1.2246467991473517e-16 4.71424430527238e-08 0.0 4.71424430527238e-08 0.0 -0.9999999999999989 1.2246467991473517e-16
998799699.9249814 -0.9999999999999989 1.2246467991473517e-16 4.6994381601329954e-08 0.0 4.6994381601329954e-08 0.0 -0.9999999999999989 1.2246467991473517e-16
998887221.8054514 -0.9999999999999989 1.2246467991473517e-16 4.6846889003017075e-08 0.0 4.6846889003017075e-08 0.0 -0.9999999999999989 1.2246467991473517e-16
998974743.6859215 -0.9999999999999989 1.2246467991473517e-16 4.669996267950138e-08 0.0 4.669996267950138e-08 0.0 -0.9999999999999989 1.2246467991473517e-16
999062265.5663917 -0.9999999999999989 1.2246467991473517e-16 4.6553600065947404e-08 0.0 4.6553600065947404e-08 0.0 -0.9999999999999989 1.2246467991473517e-16
999149787.4468617 -0.9999999999999989 1.2246467991473517e-16 4.640779861088883e-08 0.0 4.640779861088883e-08 0.0 -0.9999999999999989 1.2246467991473517e-16
999237309.3273319 -0.9999999999999989 1.2246467991473517e-16 4.626255577614803e-08 0.0 4.626255577614803e-08 0.0 -0.9999999999999989 1.2246467991473517e-16
999324831.207802 -0.9999999999999989 1.2246467991473517e-16 4.611786903676022e-08 0.0 4.611786903676022e-08 0.0 -0.9999999999999989 1.2246467991473517e-16
999412353.0882721 -0.9999999999999989 1.2246467991473517e-16 4.5973735880893874e-08 0.0 4.5973735880893874e-08 0.0 -0.9999999999999989 1.2246467991473517e-16
999499874.9687423 -0.9999999999999989 1.2246467991473517e-16 4.5830153809774026e-08 0.0 4.5830153809774026e-08 0.0 -0.9999999999999989 1.2246467991473517e-16
999587396.8492124 -0.9999999999999989 1.2246467991473517e-16 4.568712033760672e-08 0.0 4.568712033760672e-08 0.0 -0.9999999999999989 1.2246467991473517e-16
999674918.7296824 -0.9999999999999989 1.2246467991473517e-16 4.554463299150137e-08 0.0 4.554463299150137e-08 0.0 -0.9999999999999989 1.2246467991473517e-16
999762440.6101526 -0.9999999999999989 1.2246467991473517e-16 4.540268931139495e-08 0.0 4.540268931139495e-08 0.0 -0.9999999999999989 1.2246467991473517e-16
999849962.4906228 -0.999999999999999 1.224646799147352e-16 4.526128684997838e-08 0.0 4.526128684997838e-08 0.0 -0.999999999999999 1.224646799147352e-16
999937484.3710929 -0.999999999999999 1.224646799147352e-16 4.512042317261989e-08 0.0 4.512042317261989e-08 0.0 -0.999999999999999 1.224646799147352e-16
1000025006.251563 -0.999999999999999 1.224646799147352e-16 4.4980095857292796e-08 0.0 4.4980095857292796e-08 0.0 -0.999999999999999 1.224646799147352e-16
1000112528.1320331 -0.999999999999999 1.224646799147352e-16 4.484030249449944e-08 0.0 4.484030249449944e-08 0.0 -0.999999999999999 1.224646799147352e-16
1000200050.0125033 -0.999999999999999 1.224646799147352e-16 4.470104068720023e-08 0.0 4.470104068720023e-08 0.0 -0.999999999999999 1.224646799147352e-16
1000287571.8929733 -0.999999999999999 1.224646799147352e-16 4.456230805073926e-08 0.0 4.456230805073926e-08 0.0 -0.999999999999999 1.224646799147352e-16
1000375093.7734435 -0.999999999999999 1.224646799147352e-16 4.442410221277232e-08 0.0 4.442410221277232e-08 0.0 -0.999999999999999 1.224646799147352e-16
1000462615.6539136 -0.999999999999999 1.224646799147352e-16 4.4286420813195945e-08 0.0 4.4286420813195945e-08 0.0 -0.999999999999999 1.224646799147352e-16
1000550137.5343837 -0.999999999999999 1.224646799147352e-16 4.414926150407508e-08 0.0 4.414926150407508e-08 0.0 -0.999999999999999 1.224646799147352e-16
1000637659.4148538 -0.999999999999999 1.224646799147352e-16 4.401262194957218e-08 0.0 4.401262194957218e-08 0.0 -0.999999999999999 1.224646799147352e-16
1000725181.295324 -0.999999999999999 1.224646799147352e-16 4.3876499825877266e-08 0.0 4.3876499825877266e-08 0.0 -0.999999999999999 1.224646799147352e-16
1000812703.1757941 -0.999999999999999 1.224646799147352e-16 4.374089282113771e-08 0.0 4.374089282113771e-08 0.0 -0.999999999999999 1.224646799147352e-16
1000900225.0562642 -0.999999999999999 1.224646799147352e-16 4.360579863538899e-08 0.0 4.360579863538899e-08 0.0 -0.999999999999999 1.224646799147352e-16
1000987746.9367341 -0.999999999999999 1.224646799147352e-16 4.347121498048508e-08 0.0 4.347121498048508e-08 0.0 -0.999999999999999 1.224646799147352e-16
1001075268.8172042 -0.999999999999999 1.224646799147352e-16 4.333713958002936e-08 0.0 4.333713958002936e-08 0.0 -0.999999999999999 1.224646799147352e-16
1001162790.6976743 -0.999999999999999 1.224646799147352e-16 4.320357016930831e-08 0.0 4.320357016930831e-08 0.0 -0.999999999999999 1.224646799147352e-16
1001250312.5781444 -0.999999999999999 1.224646799147352e-16 4.307050449522162e-08 0.0 4.307050449522162e-08 0.0 -0.999999999999999 1.224646799147352e-16
1001337834.4586146 -0.999999999999999 1.224646799147352e-16 4.293794031621663e-08 0.0 4.293794031621663e-08 0.0 -0.999999999999999 1.224646799147352e-16
1001425356.3390847 -0.999999999999999 1.224646799147352e-16 4.28058754022199e-08 0.0 4.28058754022199e-08 0.0 -0.999999999999999 1.224646799147352e-16
1001512878.2195548 -0.9999999999999991 1.2246467991473522e-16 4.2674307534572344e-08 0.0 4.2674307534572344e-08 0.0 -0.9999999999999991 1.2246467991473522e-16
1001600400.1000249 -0.9999999999999991 1.2246467991473522e-16 4.254323450596095e-08 0.0 4.254323450596095e-08 0.0 -0.9999999999999991 1.2246467991473522e-16
1001687921.9804951 -0.9999999999999991 1.2246467991473522e-16 4.2412654120355957e-08 0.0 4.2412654120355957e-08 0.0 -0.9999999999999991 1.2246467991473522e-16
1001775443.8609651 -0.9999999999999991 1.2246467991473522e-16 4.22825641929441e-08 0.0 4.22825641929441e-08 0.0 -0.9999999999999991 1.2246467991473522e-16
1001862965.7414353 -0.9999999999999991 1.2246467991473522e-16 4.215296255006357e-08 0.0 4.215296255006357e-08 0.0 -0.9999999999999991 1.2246467991473522e-16
1001950487.6219054 -0.9999999999999991 1.2246467991473522e-16 4.202384702913999e-08 0.0 4.202384702913999e-08 0.0 -0.9999999999999991 1.2246467991473522e-16
1002038009.5023755 -0.9999999999999991 1.2246467991473522e-16 4.189521547862399e-08 0.0 4.189521547862399e-08 0.0 -0.9999999999999991 1.2246467991473522e-16
1002125531.3828456 -0.9999999999999991 1.2246467991473522e-16 4.176706575792493e-08 0.0 4.176706575792493e-08 0.0 -0.9999999999999991 1.2246467991473522e-16
1002213053.2633158 -0.9999999999999991 1.2246467991473522e-16 4.163939573735021e-08 0.0 4.163939573735021e-08 0.0 -0.9999999999999991 1.2246467991473522e-16
1002300575.143786 -0.9999999999999991 1.2246467991473522e-16 4.151220329804125e-08 0.0 4.151220329804125e-08 0.0 -0.9999999999999991 1.2246467991473522e-16
1002388097.024256 -0.9999999999999991 1.2246467991473522e-16 4.1385486331911666e-08 0.0 4.1385486331911666e-08 0.0 -0.9999999999999991 1.2246467991473522e-16
1002475618.9047261 -0.9999999999999991 1.2246467991473522e-16 4.125924274158503e-08 0.0 4.125924274158503e-08 0.0 -0.9999999999999991 1.2246467991473522e-16
1002563140.7851963 -0.9999999999999991 1.2246467991473522e-16 4.113347044033429e-08 0.0 4.113347044033429e-08 0.0 -0.9999999999999991 1.2246467991473522e-16
1002650662.6656663 -0.9999999999999991 1.2246467991473522e-16 4.1008167352019484e-08 0.0 4.1008167352019484e-08 0.0 -0.9999999999999991 1.2246467991473522e-16
1002738184.5461365 -0.9999999999999991 1.2246467991473522e-16 4.0883331411027455e-08 0.0 4.0883331411027455e-08 0.0 -0.9999999999999991 1.2246467991473522e-16
1002825706.4266067 -0.9999999999999991 1.2246467991473522e-16 4.0758960562211655e-08 0.0 4.0758960562211655e-08 0.0 -0.9999999999999991 1.2246467991473522e-16
1002913228.3070767 -0.9999999999999991 1.2246467991473522e-16 4.063505276083251e-08 0.0 4.063505276083251e-08 0.0 -0.9999999999999991 1.2246467991473522e-16
1003000750.1875468 -0.9999999999999991 1.2246467991473522e-16 4.051160597249724e-08 0.0 4.051160597249724e-08 0.0 -0.9999999999999991 1.2246467991473522e-16
1003088272.068017 -0.9999999999999991 1.2246467991473522e-16 4.038861817310088e-08 0.0 4.038861817310088e-08 0.0 -0.9999999999999991 1.2246467991473522e-16
1003175793.9484872 -0.9999999999999991 1.2246467991473522e-16 4.026608734876765e-08 0.0 4.026608734876765e-08 0.0 -0.9999999999999991 1.2246467991473522e-16
1003263315.8289572 -0.9999999999999991 1.2246467991473522e-16 4.0144011495792735e-08 0.0 4.0144011495792735e-08 0.0 -0.9999999999999991 1.2246467991473522e-16
1003350837.7094274 -0.9999999999999992 1.2246467991473522e-16 4.002238862058291e-08 0.0 4.002238862058291e-08 0.0 -0.9999999999999992 1.2246467991473522e-16
1003438359.5898975 -0.9999999999999992 1.2246467991473522e-16 3.990121673960082e-08 0.0 3.990121673960082e-08 0.0 -0.9999999999999992 1.2246467991473522e-16
1003525881.4703676 -0.9999999999999992 1.2246467991473522e-16 3.978049387930682e-08 0.0 3.978049387930682e-08 0.0 -0.9999999999999992 1.2246467991473522e-16
1003613403.3508377 -0.9999999999999992 1.2246467991473522e-16 3.966021807610093e-08 0.0 3.966021807610093e-08 0.0 -0.9999999999999992 1.2246467991473522e-16
1003700925.2313079 -0.9999999999999992 1.2246467991473522e-16 3.9540387376268006e-08 0.0 3.9540387376268006e-08 0.0 -0.9999999999999992 1.2246467991473522e-16
1003788447.1117779 -0.9999999999999992 1.2246467991473522e-16 3.942099983592045e-08 0.0 3.942099983592045e-08 0.0 -0.9999999999999992 1.2246467991473522e-16
1003875968.992248 -0.9999999999999992 1.2246467991473522e-16 3.930205352094245e-08 0.0 3.930205352094245e-08 0.0 -0.9999999999999992 1.2246467991473522e-16
1003963490.8727182 -0.9999999999999992 1.2246467991473522e-16 3.918354650693498e-08 0.0 3.918354650693498e-08 0.0 -0.9999999999999992 1.2246467991473522e-16
1004051012.7531883 -0.9999999999999992 1.2246467991473522e-16 3.9065476879159635e-08 0.0 3.9065476879159635e-08 0.0 -0.9999999999999992 1.2246467991473522e-16
1004138534.6336584 -0.9999999999999992 1.2246467991473522e-16 3.894784273248518e-08 0.0 3.894784273248518e-08 0.0 -0.9999999999999992 1.2246467991473522e-16
1004226056.5141286 -0.9999999999999992 1.2246467991473522e-16 3.8830642171331634e-08 0.0 3.8830642171331634e-08 0.0 -0.9999999999999992 1.2246467991473522e-16
1004313578.3945987 -0.9999999999999992 1.2246467991473522e-16 3.8713873309617066e-08 0.0 3.8713873309617066e-08 0.0 -0.9999999999999992 1.2246467991473522e-16
1004401100.2750688 -0.9999999999999992 1.2246467991473522e-16 3.859753427070406e-08 0.0 3.859753427070406e-08 0.0 -0.9999999999999992 1.2246467991473522e-16
1004488622.1555389 -0.9999999999999992 1.2246467991473522e-16 3.848162318734487e-08 0.0 3.848162318734487e-08 0.0 -0.9999999999999992 1.2246467991473522e-16
1004576144.0360091 -0.9999999999999992 1.2246467991473522e-16 3.8366138201629455e-08 0.0 3.8366138201629455e-08 0.0 -0.9999999999999992 1.2246467991473522e-16
1004663665.9164791 -0.9999999999999992 1.2246467991473522e-16 3.825107746493312e-08 0.0 3.825107746493312e-08 0.0 -0.9999999999999992 1.2246467991473522e-16
1004751187.7969493 -0.9999999999999992 1.2246467991473522e-16 3.813643913786222e-08 0.0 3.813643913786222e-08 0.0 -0.9999999999999992 1.2246467991473522e-16
1004838709.6774194 -0.9999999999999992 1.2246467991473522e-16 3.802222139020447e-08 0.0 3.802222139020447e-08 0.0 -0.9999999999999992 1.2246467991473522e-16
1004926231.5578895 -0.9999999999999992 1.2246467991473522e-16 3.790842240087493e-08 0.0 3.790842240087493e-08 0.0 -0.9999999999999992 1.2246467991473522e-16
1005013753.4383596 -0.9999999999999992 1.2246467991473522e-16 3.7795040357865995e-08 0.0 3.7795040357865995e-08 0.0 -0.9999999999999992 1.2246467991473522e-16
1005101275.3188298 -0.9999999999999992 1.2246467991473522e-16 3.768207345819553e-08 0.0 3.768207345819553e-08 0.0 -0.9999999999999992 1.2246467991473522e-16
1005188797.1992999 -0.9999999999999992 1.2246467991473522e-16 3.75695199078564e-08 0.0 3.75695199078564e-08 0.0 -0.9999999999999992 1.2246467991473522e-16
1005276319.07977 -0.9999999999999992 1.2246467991473522e-16 3.745737792176648e-08 0.0 3.745737792176648e-08 0.0 -0.9999999999999992 1.2246467991473522e-16
1005363840.9602401 -0.9999999999999992 1.2246467991473522e-16 3.73456457237165e-08 0.0 3.73456457237165e-08 0.0 -0.9999999999999992 1.2246467991473522e-16
1005451362.8407103 -0.9999999999999993 1.2246467991473525e-16 3.723432154632261e-08 0.0 3.723432154632261e-08 0.0 -0.9999999999999993 1.2246467991473525e-16
1005538884.7211803 -0.9999999999999993 1.2246467991473525e-16 3.712340363097587e-08 0.0 3.712340363097587e-08 0.0 -0.9999999999999993 1.2246467991473525e-16
1005626406.6016505 -0.9999999999999993 1.2246467991473525e-16 3.701289022779185e-08 0.0 3.701289022779185e-08 0.0 -0.9999999999999993 1.2246467991473525e-16
1005713928.4821206 -0.9999999999999993 1.2246467991473525e-16 3.690277959556393e-08 0.0 3.690277959556393e-08 0.0 -0.9999999999999993 1.2246467991473525e-16
1005801450.3625907 -0.9999999999999993 1.2246467991473525e-16 3.679307000171256e-08 0.0 3.679307000171256e-08 0.0 -0.9999999999999993 1.2246467991473525e-16
1005888972.2430608 -0.9999999999999993 1.2246467991473525e-16 3.668375972223847e-08 0.0 3.668375972223847e-08 0.0 -0.9999999999999993 1.2246467991473525e-16
1005976494.123531 -0.9999999999999993 1.2246467991473525e-16 3.657484704167358e-08 0.0 3.657484704167358e-08 0.0 -0.9999999999999993 1.2246467991473525e-16
1006064016.0040011 -0.9999999999999993 1.2246467991473525e-16 3.6466330253033944e-08 0.0 3.6466330253033944e-08 0.0 -0.9999999999999993 1.2246467991473525e-16
1006151537.8844712 -0.9999999999999993 1.2246467991473525e-16 3.6358207657772346e-08 0.0 3.6358207657772346e-08 0.0 -0.9999999999999993 1.2246467991473525e-16
1006239059.7649413 -0.9999999999999993 1.2246467991473525e-16 3.6250477565730354e-08 0.0 3.6250477565730354e-08 0.0 -0.9999999999999993 1.2246467991473525e-16
1006326581.6454115 -0.9999999999999993 1.2246467991473525e-16 3.614313829509243e-08 0.0 3.614313829509243e-08 0.0 -0.9999999999999993 1.2246467991473525e-16
1006414103.5258815 -0.9999999999999993 1.2246467991473525e-16 3.603618817233891e-08 0.0 3.603618817233891e-08 0.0 -0.9999999999999993 1.2246467991473525e-16
1006501625.4063517 -0.9999999999999993 1.2246467991473525e-16 3.592962553219974e-08 0.0 3.592962553219974e-08 0.0 -0.9999999999999993 1.2246467991473525e-16
1006589147.2868218 -0.9999999999999993 1.2246467991473525e-16 3.5823448717608755e-08 0.0 3.5823448717608755e-08 0.0 -0.9999999999999993 1.2246467991473525e-16
1006676669.1672919 -0.9999999999999993 1.2246467991473525e-16 3.571765607965782e-08 0.0 3.571765607965782e-08 0.0 -0.9999999999999993 1.2246467991473525e-16
1006764191.047762 -0.9999999999999993 1.2246467991473525e-16 3.56122459775515e-08 0.0 3.56122459775515e-08 0.0 -0.9999999999999993 1.2246467991473525e-16
1006851712.9282322 -0.9999999999999993 1.2246467991473525e-16 3.550721677856133e-08 0.0 3.550721677856133e-08 0.0 -0.9999999999999993 1.2246467991473525e-16
1006939234.8087022 -0.9999999999999993 1.2246467991473525e-16 3.540256685798269e-08 0.0 3.540256685798269e-08 0.0 -0.9999999999999993 1.2246467991473525e-16
1007026756.6891724 -0.9999999999999993 1.2246467991473525e-16 3.529829459908778e-08 0.0 3.529829459908778e-08 0.0 -0.9999999999999993 1.2246467991473525e-16
1007114278.5696425 -0.9999999999999993 1.2246467991473525e-16 3.519439839308362e-08 0.0 3.519439839308362e-08 0.0 -0.9999999999999993 1.2246467991473525e-16
1007201800.4501127 -0.9999999999999993 1.2246467991473525e-16 3.5090876639066586e-08 0.0 3.5090876639066586e-08 0.0 -0.9999999999999993 1.2246467991473525e-16
1007289322.3305827 -0.9999999999999993 1.2246467991473525e-16 3.4987727743979376e-08 0.0 3.4987727743979376e-08 0.0 -0.9999999999999993 1.2246467991473525e-16
1007376844.2110529 -0.9999999999999993 1.2246467991473525e-16 3.488495012256693e-08 0.0 3.488495012256693e-08 0.0 -0.9999999999999993 1.2246467991473525e-16
1007464366.091523 -0.9999999999999993 1.2246467991473525e-16 3.4782542197334133e-08 0.0 3.4782542197334133e-08 0.0 -0.9999999999999993 1.2246467991473525e-16
1007551887.9719931 -0.9999999999999993 1.2246467991473525e-16 3.4680502398501954e-08 0.0 3.4680502398501954e-08 0.0 -0.9999999999999993 1.2246467991473525e-16
1007639409.8524632 -0.9999999999999993 1.2246467991473525e-16 3.457882916396543e-08 0.0 3.457882916396543e-08 0.0 -0.9999999999999993 1.2246467991473525e-16
1007726931.7329334 -0.9999999999999993 1.2246467991473525e-16 3.4477520939250806e-08 0.0 3.4477520939250806e-08 0.0 -0.9999999999999993 1.2246467991473525e-16
1007814453.6134034 -0.9999999999999993 1.2246467991473525e-16 3.437657617747365e-08 0.0 3.437657617747365e-08 0.0 -0.9999999999999993 1.2246467991473525e-16
1007901975.4938736 -0.9999999999999993 1.2246467991473525e-16 3.427599333929705e-08 0.0 3.427599333929705e-08 0.0 -0.9999999999999993 1.2246467991473525e-16
1007989497.3743438 -0.9999999999999993 1.2246467991473525e-16 3.417577089288973e-08 0.0 3.417577089288973e-08 0.0 -0.9999999999999993 1.2246467991473525e-16
1008077019.2548139 -0.9999999999999994 1.2246467991473525e-16 3.407590731388462e-08 0.0 3.407590731388462e-08 0.0 -0.9999999999999994 1.2246467991473525e-16
1008164541.135284 -0.9999999999999994 1.2246467991473525e-16 3.397640108533848e-08 0.0 3.397640108533848e-08 0.0 -0.9999999999999994 1.2246467991473525e-16
1008252063.0157541 -0.9999999999999994 1.2246467991473525e-16 3.3877250697689604e-08 0.0 3.3877250697689604e-08 0.0 -0.9999999999999994 1.2246467991473525e-16
1008339584.8962243 -0.9999999999999994 1.2246467991473525e-16 3.3778454648718856e-08 0.0 3.3778454648718856e-08 0.0 -0.9999999999999994 1.2246467991473525e-16
1008427106.7766943 -0.9999999999999994 1.2246467991473525e-16 3.368001144350818e-08 0.0 3.368001144350818e-08 0.0 -0.9999999999999994 1.2246467991473525e-16
1008514628.6571645 -0.9999999999999994 1.2246467991473525e-16 3.3581919594400924e-08 0.0 3.3581919594400924e-08 0.0 -0.9999999999999994 1.2246467991473525e-16
1008602150.5376346 -0.9999999999999994 1.2246467991473525e-16 3.348417762096134e-08 0.0 3.348417762096134e-08 0.0 -0.9999999999999994 1.2246467991473525e-16
1008689672.4181046 -0.9999999999999994 1.2246467991473525e-16 3.3386784049936494e-08 0.0 3.3386784049936494e-08 0.0 -0.9999999999999994 1.2246467991473525e-16
1008777194.2985748 -0.9999999999999994 1.2246467991473525e-16 3.3289737415214784e-08 0.0 3.3289737415214784e-08 0.0 -0.9999999999999994 1.2246467991473525e-16
1008864716.179045 -0.9999999999999994 1.2246467991473525e-16 3.3193036257788776e-08 0.0 3.3193036257788776e-08 0.0 -0.9999999999999994 1.2246467991473525e-16
1008952238.0595151 -0.9999999999999994 1.2246467991473525e-16 3.309667912571466e-08 0.0 3.309667912571466e-08 0.0 -0.9999999999999994 1.2246467991473525e-16
1009039759.9399849 -0.9999999999999994 1.2246467991473525e-16 3.300066457407522e-08 0.0 3.300066457407522e-08 0.0 -0.9999999999999994 1.2246467991473525e-16
1009127281.8204551 -0.9999999999999994 1.2246467991473525e-16 3.290499116493922e-08 0.0 3.290499116493922e-08 0.0 -0.9999999999999994 1.2246467991473525e-16
1009214803.7009252 -0.9999999999999994 1.2246467991473525e-16 3.280965746732554e-08 0.0 3.280965746732554e-08 0.0 -0.9999999999999994 1.2246467991473525e-16
1009302325.5813953 -0.9999999999999994 1.2246467991473525e-16 3.271466205716385e-08 0.0 3.271466205716385e-08 0.0 -0.9999999999999994 1.2246467991473525e-16
1009389847.4618654 -0.9999999999999994 1.2246467991473525e-16 3.2620003517256863e-08 0.0 3.2620003517256863e-08 0.0 -0.9999999999999994 1.2246467991473525e-16
1009477369.3423356 -0.9999999999999994 1.2246467991473525e-16 3.2525680437243675e-08 0.0 3.2525680437243675e-08 0.0 -0.9999999999999994 1.2246467991473525e-16
1009564891.2228057 -0.9999999999999994 1.2246467991473525e-16 3.24316914135617e-08 0.0 3.24316914135617e-08 0.0 -0.9999999999999994 1.2246467991473525e-16
1009652413.1032758 -0.9999999999999994 1.2246467991473525e-16 3.233803504941017e-08 0.0 3.233803504941017e-08 0.0 -0.9999999999999994 1.2246467991473525e-16
1009739934.9837459 -0.9999999999999994 1.2246467991473525e-16 3.22447099547122e-08 0.0 3.22447099547122e-08 0.0 -0.9999999999999994 1.2246467991473525e-16
1009827456.8642161 -0.9999999999999994 1.2246467991473525e-16 3.215171474607982e-08 0.0 3.215171474607982e-08 0.0 -0.9999999999999994 1.2246467991473525e-16
1009914978.7446861 -0.9999999999999994 1.2246467991473525e-16 3.2059048046776857e-08 0.0 3.2059048046776857e-08 0.0 -0.9999999999999994 1.2246467991473525e-16
1010002500.6251563 -0.9999999999999994 1.2246467991473525e-16 3.1966708486681815e-08 0.0 3.1966708486681815e-08 0.0 -0.9999999999999994 1.2246467991473525e-16
1010090022.5056264 -0.9999999999999994 1.2246467991473525e-16 3.1874694702253855e-08 0.0 3.1874694702253855e-08 0.0 -0.9999999999999994 1.2246467991473525e-16
1010177544.3860965 -0.9999999999999994 1.2246467991473525e-16 3.178300533649548e-08 0.0 3.178300533649548e-08 0.0 -0.9999999999999994 1.2246467991473525e-16
1010265066.2665666 -0.9999999999999994 1.2246467991473525e-16 3.1691639038917595e-08 0.0 3.1691639038917595e-08 0.0 -0.9999999999999994 1.2246467991473525e-16
1010352588.1470368 -0.9999999999999994 1.2246467991473525e-16 3.1600594465504475e-08 0.0 3.1600594465504475e-08 0.0 -0.9999999999999994 1.2246467991473525e-16
1010440110.027507 -0.9999999999999994 1.2246467991473525e-16 3.150987027867833e-08 0.0 3.150987027867833e-08 0.0 -0.9999999999999994 1.2246467991473525e-16
1010527631.907977 -0.9999999999999994 1.2246467991473525e-16 3.1419465147264425e-08 0.0 3.1419465147264425e-08 0.0 -0.9999999999999994 1.2246467991473525e-16
1010615153.7884471 -0.9999999999999994 1.2246467991473525e-16 3.132937774645645e-08 0.0 3.132937774645645e-08 0.0 -0.9999999999999994 1.2246467991473525e-16
1010702675.6689173 -0.9999999999999994 1.2246467991473525e-16 3.123960675778252e-08 0.0 3.123960675778252e-08 0.0 -0.9999999999999994 1.2246467991473525e-16
1010790197.5493873 -0.9999999999999994 1.2246467991473525e-16 3.1150150869070474e-08 0.0 3.1150150869070474e-08 0.0 -0.9999999999999994 1.2246467991473525e-16
1010877719.4298575 -0.9999999999999994 1.2246467991473525e-16 3.106100877441372e-08 0.0 3.106100877441372e-08 0.0 -0.9999999999999994 1.2246467991473525e-16
1010965241.3103276 -0.9999999999999994 1.2246467991473525e-16 3.097217917413797e-08 0.0 3.097217917413797e-08 0.0 -0.9999999999999994 1.2246467991473525e-16
1011052763.1907977 -0.9999999999999994 1.2246467991473525e-16 3.0883660774767085e-08 0.0 3.0883660774767085e-08 0.0 -0.9999999999999994 1.2246467991473525e-16
1011140285.0712678 -0.9999999999999994 1.2246467991473525e-16 3.079545228898969e-08 0.0 3.079545228898969e-08 0.0 -0.9999999999999994 1.2246467991473525e-16
1011227806.951738 -0.9999999999999996 1.2246467991473527e-16 3.0707552435626466e-08 0.0 3.0707552435626466e-08 0.0 -0.9999999999999996 1.2246467991473527e-16
1011315328.832208 -0.9999999999999996 1.2246467991473527e-16 3.061995993959673e-08 0.0 3.061995993959673e-08 0.0 -0.9999999999999996 1.2246467991473527e-16
1011402850.7126782 -0.9999999999999996 1.2246467991473527e-16 3.053267353188541e-08 0.0 3.053267353188541e-08 0.0 -0.9999999999999996 1.2246467991473527e-16
1011490372.5931484 -0.9999999999999996 1.2246467991473527e-16 3.044569194951084e-08 0.0 3.044569194951084e-08 0.0 -0.9999999999999996 1.2246467991473527e-16
1011577894.4736185 -0.9999999999999996 1.2246467991473527e-16 3.035901393549232e-08 0.0 3.035901393549232e-08 0.0 -0.9999999999999996 1.2246467991473527e-16
1011665416.3540885 -0.9999999999999996 1.2246467991473527e-16 3.027263823881756e-08 0.0 3.027263823881756e-08 0.0 -0.9999999999999996 1.2246467991473527e-16
1011752938.2345587 -0.9999999999999996 1.2246467991473527e-16 3.0186563614410675e-08 0.0 3.0186563614410675e-08 0.0 -0.9999999999999996 1.2246467991473527e-16
1011840460.1150289 -0.9999999999999996 1.2246467991473527e-16 3.010078882310073e-08 0.0 3.010078882310073e-08 0.0 -0.9999999999999996 1.2246467991473527e-16
1011927981.9954989 -0.9999999999999996 1.2246467991473527e-16 3.001531263158978e-08 0.0 3.001531263158978e-08 0.0 -0.9999999999999996 1.2246467991473527e-16
1012015503.875969 -0.9999999999999996 1.2246467991473527e-16 2.993013381242109e-08 0.0 2.993013381242109e-08 0.0 -0.9999999999999996 1.2246467991473527e-16
1012103025.7564392 -0.9999999999999996 1.2246467991473527e-16 2.984525114394868e-08 0.0 2.984525114394868e-08 0.0 -0.9999999999999996 1.2246467991473527e-16
1012190547.6369092 -0.9999999999999996 1.2246467991473527e-16 2.9760663410305687e-08 0.0 2.9760663410305687e-08 0.0 -0.9999999999999996 1.2246467991473527e-16
1012278069.5173794 -0.9999999999999996 1.2246467991473527e-16 2.9676369401373003e-08 0.0 2.9676369401373003e-08 0.0 -0.9999999999999996 1.2246467991473527e-16
1012365591.3978496 -0.9999999999999996 1.2246467991473527e-16 2.9592367912749498e-08 0.0 2.9592367912749498e-08 0.0 -0.9999999999999996 1.2246467991473527e-16
1012453113.2783197 -0.9999999999999996 1.2246467991473527e-16 2.9508657745721017e-08 0.0 2.9508657745721017e-08 0.0 -0.9999999999999996 1.2246467991473527e-16
1012540635.1587898 -0.9999999999999996 1.2246467991473527e-16 2.9425237707230318e-08 0.0 2.9425237707230318e-08 0.0 -0.9999999999999996 1.2246467991473527e-16
1012628157.0392599 -0.9999999999999996 1.2246467991473527e-16 2.9342106609845716e-08 0.0 2.9342106609845716e-08 0.0 -0.9999999999999996 1.2246467991473527e-16
1012715678.9197301 -0.9999999999999996 1.2246467991473527e-16 2.925926327173284e-08 0.0 2.925926327173284e-08 0.0 -0.9999999999999996 1.2246467991473527e-16
1012803200.8002001 -0.9999999999999996 1.2246467991473527e-16 2.9176706516623737e-08 0.0 2.9176706516623737e-08 0.0 -0.9999999999999996 1.2246467991473527e-16
1012890722.6806703 -0.9999999999999996 1.2246467991473527e-16 2.909443517378722e-08 0.0 2.909443517378722e-08 0.0 -0.9999999999999996 1.2246467991473527e-16
1012978244.5611404 -0.9999999999999996 1.2246467991473527e-16 2.9012448077999766e-08 0.0 2.9012448077999766e-08 0.0 -0.9999999999999996 1.2246467991473527e-16
1013065766.4416105 -0.9999999999999996 1.2246467991473527e-16 2.8930744069516196e-08 0.0 2.8930744069516196e-08 0.0 -0.9999999999999996 1.2246467991473527e-16
1013153288.3220806 -0.9999999999999996 1.2246467991473527e-16 2.8849321994040246e-08 0.0 2.8849321994040246e-08 0.0 -0.9999999999999996 1.2246467991473527e-16
1013240810.2025508 -0.9999999999999996 1.2246467991473527e-16 2.8768180702695857e-08 0.0 2.8768180702695857e-08 0.0 -0.9999999999999996 1.2246467991473527e-16
1013328332.0830209 -0.9999999999999996 1.2246467991473527e-16 2.8687319051998423e-08 0.0 2.8687319051998423e-08 0.0 -0.9999999999999996 1.2246467991473527e-16
1013415853.963491 -0.9999999999999996 1.2246467991473527e-16 2.860673590382609e-08 0.0 2.860673590382609e-08 0.0 -0.9999999999999996 1.2246467991473527e-16
1013503375.8439611 -0.9999999999999996 1.2246467991473527e-16 2.8526430125391146e-08 0.0 2.8526430125391146e-08 0.0 -0.9999999999999996 1.2246467991473527e-16
1013590897.7244313 -0.9999999999999996 1.2246467991473527e-16 2.8446400589212503e-08 0.0 2.8446400589212503e-08 0.0 -0.9999999999999996 1.2246467991473527e-16
1013678419.6049013 -0.9999999999999996 1.2246467991473527e-16 2.8366646173086248e-08 0.0 2.8366646173086248e-08 0.0 -0.9999999999999996 1.2246467991473527e-16
1013765941.4853715 -0.9999999999999996 1.2246467991473527e-16 2.8287165760058992e-08 0.0 2.8287165760058992e-08 0.0 -0.9999999999999996 1.2246467991473527e-16
1013853463.3658416 -0.9999999999999996 1.2246467991473527e-16 2.820795823839956e-08 0.0 2.820795823839956e-08 0.0 -0.9999999999999996 1.2246467991473527e-16
1013940985.2463115 -0.9999999999999996 1.2246467991473527e-16 2.8129022501571764e-08 0.0 2.8129022501571764e-08 0.0 -0.9999999999999996 1.2246467991473527e-16
1014028507.1267816 -0.9999999999999996 1.2246467991473527e-16 2.8050357448205698e-08 0.0 2.8050357448205698e-08 0.0 -0.9999999999999996 1.2246467991473527e-16
1014116029.0072517 -0.9999999999999996 1.2246467991473527e-16 2.797196198207185e-08 0.0 2.797196198207185e-08 0.0 -0.9999999999999996 1.2246467991473527e-16
1014203550.8877219 -0.9999999999999996 1.2246467991473527e-16 2.7893835012054012e-08 0.0 2.7893835012054012e-08 0.0 -0.9999999999999996 1.2246467991473527e-16
1014291072.7681919 -0.9999999999999996 1.2246467991473527e-16 2.78159754521213e-08 0.0 2.78159754521213e-08 0.0 -0.9999999999999996 1.2246467991473527e-16
1014378594.6486621 -0.9999999999999996 1.2246467991473527e-16 2.7738382221301826e-08 0.0 2.7738382221301826e-08 0.0 -0.9999999999999996 1.2246467991473527e-16
1014466116.5291322 -0.9999999999999996 1.2246467991473527e-16 2.7661054243656173e-08 0.0 2.7661054243656173e-08 0.0 -0.9999999999999996 1.2246467991473527e-16
1014553638.4096023 -0.9999999999999996 1.2246467991473527e-16 2.75839904482511e-08 0.0 2.75839904482511e-08 0.0 -0.9999999999999996 1.2246467991473527e-16
1014641160.2900724 -0.9999999999999996 1.2246467991473527e-16 2.7507189769132555e-08 0.0 2.7507189769132555e-08 0.0 -0.9999999999999996 1.2246467991473527e-16
1014728682.1705426 -0.9999999999999996 1.2246467991473527e-16 2.7430651145300055e-08 0.0 2.7430651145300055e-08 0.0 -0.9999999999999996 1.2246467991473527e-16
1014816204.0510126 -0.9999999999999996 1.2246467991473527e-16 2.735437352068042e-08 0.0 2.735437352068042e-08 0.0 -0.9999999999999996 1.2246467991473527e-16
1014903725.9314828 -0.9999999999999996 1.2246467991473527e-16 2.7278355844101944e-08 0.0 2.7278355844101944e-08 0.0 -0.9999999999999996 1.2246467991473527e-16
1014991247.811953 -0.9999999999999996 1.2246467991473527e-16 2.720259706926856e-08 0.0 2.720259706926856e-08 0.0 -0.9999999999999996 1.2246467991473527e-16
1015078769.6924231 -0.9999999999999996 1.2246467991473527e-16 2.712709615473487e-08 0.0 2.712709615473487e-08 0.0 -0.9999999999999996 1.2246467991473527e-16
1015166291.5728931 -0.9999999999999996 1.2246467991473527e-16 2.7051852063879746e-08 0.0 2.7051852063879746e-08 0.0 -0.9999999999999996 1.2246467991473527e-16
1015253813.4533633 -0.9999999999999996 1.2246467991473527e-16 2.697686376488175e-08 0.0 2.697686376488175e-08 0.0 -0.9999999999999996 1.2246467991473527e-16
1015341335.3338335 -0.9999999999999996 1.2246467991473527e-16 2.6902130230693513e-08 0.0 2.6902130230693513e-08 0.0 -0.9999999999999996 1.2246467991473527e-16
1015428857.2143035 -0.9999999999999997 1.2246467991473527e-16 2.682765043901774e-08 0.0 2.682765043901774e-08 0.0 -0.9999999999999997 1.2246467991473527e-16
1015516379.0947737 -0.9999999999999997 1.2246467991473527e-16 2.6753423372280828e-08 0.0 2.6753423372280828e-08 0.0 -0.9999999999999997 1.2246467991473527e-16
1015603900.9752438 -0.9999999999999997 1.2246467991473527e-16 2.6679448017609905e-08 0.0 2.6679448017609905e-08 0.0 -0.9999999999999997 1.2246467991473527e-16
1015691422.8557138 -0.9999999999999997 1.2246467991473527e-16 2.6605723366806564e-08 0.0 2.6605723366806564e-08 0.0 -0.9999999999999997 1.2246467991473527e-16
1015778944.736184 -0.9999999999999997 1.2246467991473527e-16 2.6532248416323905e-08 0.0 2.6532248416323905e-08 0.0 -0.9999999999999997 1.2246467991473527e-16
1015866466.6166542 -0.9999999999999997 1.2246467991473527e-16 2.645902216724139e-08 0.0 2.645902216724139e-08 0.0 -0.9999999999999997 1.2246467991473527e-16
1015953988.4971243 -0.9999999999999997 1.2246467991473527e-16 2.6386043625241128e-08 0.0 2.6386043625241128e-08 0.0 -0.9999999999999997 1.2246467991473527e-16
1016041510.3775944 -0.9999999999999997 1.2246467991473527e-16 2.631331180058388e-08 0.0 2.631331180058388e-08 0.0 -0.9999999999999997 1.2246467991473527e-16
1016129032.2580645 -0.9999999999999997 1.2246467991473527e-16 2.6240825708084945e-08 0.0 2.6240825708084945e-08 0.0 -0.9999999999999997 1.2246467991473527e-16
1016216554.1385347 -0.9999999999999997 1.2246467991473527e-16 2.616858436709071e-08 0.0 2.616858436709071e-08 0.0 -0.9999999999999997 1.2246467991473527e-16
1016304076.0190047 -0.9999999999999997 1.2246467991473527e-16 2.609658680145503e-08 0.0 2.609658680145503e-08 0.0 -0.9999999999999997 1.2246467991473527e-16
1016391597.8994749 -0.9999999999999997 1.2246467991473527e-16 2.6024832039515664e-08 0.0 2.6024832039515664e-08 0.0 -0.9999999999999997 1.2246467991473527e-16
1016479119.779945 -0.9999999999999997 1.2246467991473527e-16 2.5953319114071284e-08 0.0 2.5953319114071284e-08 0.0 -0.9999999999999997 1.2246467991473527e-16
1016566641.660415 -0.9999999999999997 1.2246467991473527e-16 2.5882047062358097e-08 0.0 2.5882047062358097e-08 0.0 -0.9999999999999997 1.2246467991473527e-16
1016654163.5408852 -0.9999999999999997 1.2246467991473527e-16 2.58110149260265e-08 0.0 2.58110149260265e-08 0.0 -0.9999999999999997 1.2246467991473527e-16
1016741685.4213554 -0.9999999999999997 1.2246467991473527e-16 2.5740221751118935e-08 0.0 2.5740221751118935e-08 0.0 -0.9999999999999997 1.2246467991473527e-16
1016829207.3018255 -0.9999999999999997 1.2246467991473527e-16 2.566966658804703e-08 0.0 2.566966658804703e-08 0.0 -0.9999999999999997 1.2246467991473527e-16
1016916729.1822956 -0.9999999999999997 1.2246467991473527e-16 2.559934849156795e-08 0.0 2.559934849156795e-08 0.0 -0.9999999999999997 1.2246467991473527e-16
1017004251.0627657 -0.9999999999999997 1.2246467991473527e-16 2.5529266520763087e-08 0.0 2.5529266520763087e-08 0.0 -0.9999999999999997 1.2246467991473527e-16
1017091772.9432359 -0.9999999999999997 1.2246467991473527e-16 2.545941973901524e-08 0.0 2.545941973901524e-08 0.0 -0.9999999999999997 1.2246467991473527e-16
1017179294.8237059 -0.9999999999999997 1.2246467991473527e-16 2.5389807213986426e-08 0.0 2.5389807213986426e-08 0.0 -0.9999999999999997 1.2246467991473527e-16
1017266816.7041761 -0.9999999999999997 1.2246467991473527e-16 2.5320428017595358e-08 0.0 2.5320428017595358e-08 0.0 -0.9999999999999997 1.2246467991473527e-16
1017354338.5846462 -0.9999999999999997 1.2246467991473527e-16 2.5251281225996387e-08 0.0 2.5251281225996387e-08 0.0 -0.9999999999999997 1.2246467991473527e-16
1017441860.4651163 -0.9999999999999997 1.2246467991473527e-16 2.5182365919556802e-08 0.0 2.5182365919556802e-08 0.0 -0.9999999999999997 1.2246467991473527e-16
1017529382.3455864 -0.9999999999999997 1.2246467991473527e-16 2.5113681182835192e-08 0.0 2.5113681182835192e-08 0.0 -0.9999999999999997 1.2246467991473527e-16
1017616904.2260566 -0.9999999999999997 1.2246467991473527e-16 2.5045226104560542e-08 0.0 2.5045226104560542e-08 0.0 -0.9999999999999997 1.2246467991473527e-16
1017704426.1065266 -0.9999999999999997 1.2246467991473527e-16 2.497699977760985e-08 0.0 2.497699977760985e-08 0.0 -0.9999999999999997 1.2246467991473527e-16
1017791947.9869968 -0.9999999999999997 1.2246467991473527e-16 2.4909001298987634e-08 0.0 2.4909001298987634e-08 0.0 -0.9999999999999997 1.2246467991473527e-16
1017879469.8674669 -0.9999999999999997 1.2246467991473527e-16 2.484122976980372e-08 0.0 2.484122976980372e-08 0.0 -0.9999999999999997 1.2246467991473527e-16
1017966991.7479371 -0.9999999999999997 1.2246467991473527e-16 2.4773684295252917e-08 0.0 2.4773684295252917e-08 0.0 -0.9999999999999997 1.2246467991473527e-16
1018054513.6284071 -0.9999999999999997 1.2246467991473527e-16 2.47063639845939e-08 0.0 2.47063639845939e-08 0.0 -0.9999999999999997 1.2246467991473527e-16
1018142035.5088773 -0.9999999999999997 1.2246467991473527e-16 2.4639267951127988e-08 0.0 2.4639267951127988e-08 0.0 -0.9999999999999997 1.2246467991473527e-16
1018229557.3893474 -0.9999999999999997 1.2246467991473527e-16 2.457239531217873e-08 0.0 2.457239531217873e-08 0.0 -0.9999999999999997 1.2246467991473527e-16
1018317079.2698175 -0.9999999999999997 1.2246467991473527e-16 2.4505745189071243e-08 0.0 2.4505745189071243e-08 0.0 -0.9999999999999997 1.2246467991473527e-16
1018404601.1502876 -0.9999999999999997 1.2246467991473527e-16 2.4439316707111164e-08 0.0 2.4439316707111164e-08 0.0 -0.9999999999999997 1.2246467991473527e-16
1018492123.0307578 -0.9999999999999997 1.2246467991473527e-16 2.437310899556527e-08 0.0 2.437310899556527e-08 0.0 -0.9999999999999997 1.2246467991473527e-16
1018579644.9112278 -0.9999999999999997 1.2246467991473527e-16 2.4307121187640598e-08 0.0 2.4307121187640598e-08 0.0 -0.9999999999999997 1.2246467991473527e-16
1018667166.791698 -0.9999999999999997 1.2246467991473527e-16 2.4241352420463676e-08 0.0 2.4241352420463676e-08 0.0 -0.9999999999999997 1.2246467991473527e-16
1018754688.6721681 -0.9999999999999997 1.2246467991473527e-16 2.4175801835061937e-08 0.0 2.4175801835061937e-08 0.0 -0.9999999999999997 1.2246467991473527e-16
1018842210.5526383 -0.9999999999999997 1.2246467991473527e-16 2.4110468576342372e-08 0.0 2.4110468576342372e-08 0.0 -0.9999999999999997 1.2246467991473527e-16
1018929732.4331083 -0.9999999999999997 1.2246467991473527e-16 2.40453517930727e-08 0.0 2.40453517930727e-08 0.0 -0.9999999999999997 1.2246467991473527e-16
1019017254.3135785 -0.9999999999999997 1.2246467991473527e-16 2.3980450637860723e-08 0.0 2.3980450637860723e-08 0.0 -0.9999999999999997 1.2246467991473527e-16
1019104776.1940486 -0.9999999999999997 1.2246467991473527e-16 2.39157642671358e-08 0.0 2.39157642671358e-08 0.0 -0.9999999999999997 1.2246467991473527e-16
1019192298.0745187 -0.9999999999999997 1.2246467991473527e-16 2.3851291841128773e-08 0.0 2.3851291841128773e-08 0.0 -0.9999999999999997 1.2246467991473527e-16
1019279819.9549888 -0.9999999999999997 1.2246467991473527e-16 2.3787032523851993e-08 0.0 2.3787032523851993e-08 0.0 -0.9999999999999997 1.2246467991473527e-16
1019367341.835459 -0.9999999999999997 1.2246467991473527e-16 2.3722985483081655e-08 0.0 2.3722985483081655e-08 0.0 -0.9999999999999997 1.2246467991473527e-16
1019454863.715929 -0.9999999999999997 1.2246467991473527e-16 2.3659149890337253e-08 0.0 2.3659149890337253e-08 0.0 -0.9999999999999997 1.2246467991473527e-16
1019542385.5963992 -0.9999999999999997 1.2246467991473527e-16 2.3595524920862584e-08 0.0 2.3595524920862584e-08 0.0 -0.9999999999999997 1.2246467991473527e-16
1019629907.4768693 -0.9999999999999997 1.2246467991473527e-16 2.3532109753607907e-08 0.0 2.3532109753607907e-08 0.0 -0.9999999999999997 1.2246467991473527e-16
1019717429.3573395 -0.9999999999999997 1.2246467991473527e-16 2.3468903571209892e-08 0.0 2.3468903571209892e-08 0.0 -0.9999999999999997 1.2246467991473527e-16
1019804951.2378095 -0.9999999999999997 1.2246467991473527e-16 2.340590555997387e-08 0.0 2.340590555997387e-08 0.0 -0.9999999999999997 1.2246467991473527e-16
1019892473.1182797 -0.9999999999999997 1.2246467991473527e-16 2.33431149098542e-08 0.0 2.33431149098542e-08 0.0 -0.9999999999999997 1.2246467991473527e-16
1019979994.9987499 -0.9999999999999997 1.2246467991473527e-16 2.328053081443682e-08 0.0 2.328053081443682e-08 0.0 -0.9999999999999997 1.2246467991473527e-16
1020067516.8792199 -0.9999999999999997 1.2246467991473527e-16 2.3218152470920195e-08 0.0 2.3218152470920195e-08 0.0 -0.9999999999999997 1.2246467991473527e-16
1020155038.75969 -0.9999999999999997 1.2246467991473527e-16 2.3155979080096778e-08 0.0 2.3155979080096778e-08 0.0 -0.9999999999999997 1.2246467991473527e-16
1020242560.6401602 -0.9999999999999997 1.2246467991473527e-16 2.309400984633575e-08 0.0 2.309400984633575e-08 0.0 -0.9999999999999997 1.2246467991473527e-16
1020330082.5206302 -0.9999999999999997 1.2246467991473527e-16 2.3032243977564158e-08 0.0 2.3032243977564158e-08 0.0 -0.9999999999999997 1.2246467991473527e-16
1020417604.4011004 -0.9999999999999997 1.2246467991473527e-16 2.2970680685248716e-08 0.0 2.2970680685248716e-08 0.0 -0.9999999999999997 1.2246467991473527e-16
1020505126.2815706 -0.9999999999999997 1.2246467991473527e-16 2.2909319184379137e-08 0.0 2.2909319184379137e-08 0.0 -0.9999999999999997 1.2246467991473527e-16
1020592648.1620406 -0.9999999999999997 1.2246467991473527e-16 2.2848158693448888e-08 0.0 2.2848158693448888e-08 0.0 -0.9999999999999997 1.2246467991473527e-16
1020680170.0425107 -0.9999999999999997 1.2246467991473527e-16 2.278719843443806e-08 0.0 2.278719843443806e-08 0.0 -0.9999999999999997 1.2246467991473527e-16
1020767691.9229809 -0.9999999999999997 1.2246467991473527e-16 2.2726437632796313e-08 0.0 2.2726437632796313e-08 0.0 -0.9999999999999997 1.2246467991473527e-16
1020855213.8034511 -0.9999999999999997 1.2246467991473527e-16 2.2665875517424683e-08 0.0 2.2665875517424683e-08 0.0 -0.9999999999999997 1.2246467991473527e-16
1020942735.6839211 -0.9999999999999997 1.2246467991473527e-16 2.260551132065841e-08 0.0 2.260551132065841e-08 0.0 -0.9999999999999997 1.2246467991473527e-16
1021030257.5643913 -0.9999999999999997 1.2246467991473527e-16 2.2545344278249696e-08 0.0 2.2545344278249696e-08 0.0 -0.9999999999999997 1.2246467991473527e-16
1021117779.4448614 -0.9999999999999997 1.2246467991473527e-16 2.2485373629350134e-08 0.0 2.2485373629350134e-08 0.0 -0.9999999999999997 1.2246467991473527e-16
1021205301.3253314 -0.9999999999999997 1.2246467991473527e-16 2.2425598616494633e-08 0.0 2.2425598616494633e-08 0.0 -0.9999999999999997 1.2246467991473527e-16
1021292823.2058016 -0.9999999999999997 1.2246467991473527e-16 2.23660184855829e-08 0.0 2.23660184855829e-08 0.0 -0.9999999999999997 1.2246467991473527e-16
1021380345.0862718 -0.9999999999999998 1.224646799147353e-16 2.230663248586407e-08 0.0 2.230663248586407e-08 0.0 -0.9999999999999998 1.224646799147353e-16
1021467866.9667418 -0.9999999999999998 1.224646799147353e-16 2.2247439869918575e-08 0.0 2.2247439869918575e-08 0.0 -0.9999999999999998 1.224646799147353e-16
1021555388.847212 -0.9999999999999998 1.224646799147353e-16 2.2188439893641972e-08 0.0 2.2188439893641972e-08 0.0 -0.9999999999999998 1.224646799147353e-16
1021642910.7276821 -0.9999999999999998 1.224646799147353e-16 2.2129631816228945e-08 0.0 2.2129631816228945e-08 0.0 -0.9999999999999998 1.224646799147353e-16
1021730432.6081523 -0.9999999999999998 1.224646799147353e-16 2.207101490015567e-08 0.0 2.207101490015567e-08 0.0 -0.9999999999999998 1.224646799147353e-16
1021817954.4886223 -0.9999999999999998 1.224646799147353e-16 2.201258841116402e-08 0.0 2.201258841116402e-08 0.0 -0.9999999999999998 1.224646799147353e-16
1021905476.3690925 -0.9999999999999998 1.224646799147353e-16 2.1954351618244764e-08 0.0 2.1954351618244764e-08 0.0 -0.9999999999999998 1.224646799147353e-16
1021992998.2495624 -0.9999999999999998 1.224646799147353e-16 2.189630379362211e-08 0.0 2.189630379362211e-08 0.0 -0.9999999999999998 1.224646799147353e-16
1022080520.1300324 -0.9999999999999998 1.224646799147353e-16 2.1838444212736506e-08 0.0 2.1838444212736506e-08 0.0 -0.9999999999999998 1.224646799147353e-16
1022168042.0105026 -0.9999999999999998 1.224646799147353e-16 2.1780772154229485e-08 0.0 2.1780772154229485e-08 0.0 -0.9999999999999998 1.224646799147353e-16
1022255563.8909727 -0.9999999999999998 1.224646799147353e-16 2.1723286899926843e-08 0.0 2.1723286899926843e-08 0.0 -0.9999999999999998 1.224646799147353e-16
1022343085.7714429 -0.9999999999999998 1.224646799147353e-16 2.1665987734823342e-08 0.0 2.1665987734823342e-08 0.0 -0.9999999999999998 1.224646799147353e-16
1022430607.6519129 -0.9999999999999998 1.224646799147353e-16 2.1608873947067056e-08 0.0 2.1608873947067056e-08 0.0 -0.9999999999999998 1.224646799147353e-16
1022518129.5323831 -0.9999999999999998 1.224646799147353e-16 2.155194482794273e-08 0.0 2.155194482794273e-08 0.0 -0.9999999999999998 1.224646799147353e-16
1022605651.4128532 -0.9999999999999998 1.224646799147353e-16 2.149519967185711e-08 0.0 2.149519967185711e-08 0.0 -0.9999999999999998 1.224646799147353e-16
1022693173.2933233 -0.9999999999999998 1.224646799147353e-16 2.143863777632275e-08 0.0 2.143863777632275e-08 0.0 -0.9999999999999998 1.224646799147353e-16
1022780695.1737934 -0.9999999999999998 1.224646799147353e-16 2.138225844194282e-08 0.0 2.138225844194282e-08 0.0 -0.9999999999999998 1.224646799147353e-16
1022868217.0542636 -0.9999999999999998 1.224646799147353e-16 2.1326060972395727e-08 0.0 2.1326060972395727e-08 0.0 -0.9999999999999998 1.224646799147353e-16
1022955738.9347336 -0.9999999999999998 1.224646799147353e-16 2.1270044674420204e-08 0.0 2.1270044674420204e-08 0.0 -0.9999999999999998 1.224646799147353e-16
1023043260.8152038 -0.9999999999999998 1.224646799147353e-16 2.121420885779888e-08 0.0 2.121420885779888e-08 0.0 -0.9999999999999998 1.224646799147353e-16
1023130782.695674 -0.9999999999999998 1.224646799147353e-16 2.1158552835344538e-08 0.0 2.1158552835344538e-08 0.0 -0.9999999999999998 1.224646799147353e-16
1023218304.5761441 -0.9999999999999998 1.224646799147353e-16 2.1103075922884213e-08 0.0 2.1103075922884213e-08 0.0 -0.9999999999999998 1.224646799147353e-16
1023305826.4566141 -0.9999999999999998 1.224646799147353e-16 2.1047777439244995e-08 0.0 2.1047777439244995e-08 0.0 -0.9999999999999998 1.224646799147353e-16
1023393348.3370843 -0.9999999999999998 1.224646799147353e-16 2.09926567062381e-08 0.0 2.09926567062381e-08 0.0 -0.9999999999999998 1.224646799147353e-16
1023480870.2175545 -0.9999999999999998 1.224646799147353e-16 2.093771304864489e-08 0.0 2.093771304864489e-08 0.0 -0.9999999999999998 1.224646799147353e-16
1023568392.0980245 -0.9999999999999998 1.224646799147353e-16 2.08829457942021e-08 0.0 2.08829457942021e-08 0.0 -0.9999999999999998 1.224646799147353e-16
1023655913.9784946 -0.9999999999999998 1.224646799147353e-16 2.082835427358682e-08 0.0 2.082835427358682e-08 0.0 -0.9999999999999998 1.224646799147353e-16
1023743435.8589648 -0.9999999999999998 1.224646799147353e-16 2.077393782040215e-08 0.0 2.077393782040215e-08 0.0 -0.9999999999999998 1.224646799147353e-16
1023830957.7394348 -0.9999999999999998 1.224646799147353e-16 2.0719695771163123e-08 0.0 2.0719695771163123e-08 0.0 -0.9999999999999998 1.224646799147353e-16
1023918479.619905 -0.9999999999999998 1.224646799147353e-16 2.0665627465281476e-08 0.0 2.0665627465281476e-08 0.0 -0.9999999999999998 1.224646799147353e-16
1024006001.5003752 -0.9999999999999998 1.224646799147353e-16 2.061173224505202e-08 0.0 2.061173224505202e-08 0.0 -0.9999999999999998 1.224646799147353e-16
1024093523.3808453 -0.9999999999999998 1.224646799147353e-16 2.0558009455638214e-08 0.0 2.0558009455638214e-08 0.0 -0.9999999999999998 1.224646799147353e-16
1024181045.2613153 -0.9999999999999998 1.224646799147353e-16 2.050445844505799e-08 0.0 2.050445844505799e-08 0.0 -0.9999999999999998 1.224646799147353e-16
1024268567.1417855 -0.9999999999999998 1.224646799147353e-16 2.0451078564169627e-08 0.0 2.0451078564169627e-08 0.0 -0.9999999999999998 1.224646799147353e-16
1024356089.0222557 -0.9999999999999998 1.224646799147353e-16 2.039786916665783e-08 0.0 2.039786916665783e-08 0.0 -0.9999999999999998 1.224646799147353e-16
1024443610.9027257 -0.9999999999999998 1.224646799147353e-16 2.0344829609020024e-08 0.0 2.0344829609020024e-08 0.0 -0.9999999999999998 1.224646799147353e-16
1024531132.7831959 -0.9999999999999998 1.224646799147353e-16 2.0291959250551774e-08 0.0 2.0291959250551774e-08 0.0 -0.9999999999999998 1.224646799147353e-16
1024618654.663666 -0.9999999999999998 1.224646799147353e-16 2.0239257453334028e-08 0.0 2.0239257453334028e-08 0.0 -0.9999999999999998 1.224646799147353e-16
1024706176.544136 -0.9999999999999998 1.224646799147353e-16 2.0186723582218825e-08 0.0 2.0186723582218825e-08 0.0 -0.9999999999999998 1.224646799147353e-16
1024793698.4246062 -0.9999999999999998 1.224646799147353e-16 2.013435700481546e-08 0.0 2.013435700481546e-08 0.0 -0.9999999999999998 1.224646799147353e-16
1024881220.3050764 -0.9999999999999998 1.224646799147353e-16 2.0082157091477654e-08 0.0 2.0082157091477654e-08 0.0 -0.9999999999999998 1.224646799147353e-16
1024968742.1855464 -0.9999999999999998 1.224646799147353e-16 2.0030123215289558e-08 0.0 2.0030123215289558e-08 0.0 -0.9999999999999998 1.224646799147353e-16
1025056264.0660166 -0.9999999999999998 1.224646799147353e-16 1.9978254752052228e-08 0.0 1.9978254752052228e-08 0.0 -0.9999999999999998 1.224646799147353e-16
1025143785.9464867 -0.9999999999999998 1.224646799147353e-16 1.992655108027105e-08 0.0 1.992655108027105e-08 0.0 -0.9999999999999998 1.224646799147353e-16
1025231307.8269569 -0.9999999999999998 1.224646799147353e-16 1.9875011581141584e-08 0.0 1.9875011581141584e-08 0.0 -0.9999999999999998 1.224646799147353e-16
1025318829.7074269 -0.9999999999999998 1.224646799147353e-16 1.9823635638537202e-08 0.0 1.9823635638537202e-08 0.0 -0.9999999999999998 1.224646799147353e-16
1025406351.5878971 -0.9999999999999998 1.224646799147353e-16 1.9772422638995136e-08 0.0 1.9772422638995136e-08 0.0 -0.9999999999999998 1.224646799147353e-16
1025493873.4683672 -0.9999999999999998 1.224646799147353e-16 1.9721371971704287e-08 0.0 1.9721371971704287e-08 0.0 -0.9999999999999998 1.224646799147353e-16
1025581395.3488373 -0.9999999999999998 1.224646799147353e-16 1.9670483028491874e-08 0.0 1.9670483028491874e-08 0.0 -0.9999999999999998 1.224646799147353e-16
1025668917.2293074 -0.9999999999999998 1.224646799147353e-16 1.9619755203810342e-08 0.0 1.9619755203810342e-08 0.0 -0.9999999999999998 1.224646799147353e-16
1025756439.1097776 -0.9999999999999998 1.224646799147353e-16 1.9569187894724732e-08 0.0 1.9569187894724732e-08 0.0 -0.9999999999999998 1.224646799147353e-16
1025843960.9902476 -0.9999999999999998 1.224646799147353e-16 1.9518780500900408e-08 0.0 1.9518780500900408e-08 0.0 -0.9999999999999998 1.224646799147353e-16
1025931482.8707178 -0.9999999999999998 1.224646799147353e-16 1.9468532424589234e-08 0.0 1.9468532424589234e-08 0.0 -0.9999999999999998 1.224646799147353e-16
1026019004.7511879 -0.9999999999999998 1.224646799147353e-16 1.941844307061821e-08 0.0 1.941844307061821e-08 0.0 -0.9999999999999998 1.224646799147353e-16
1026106526.6316581 -0.9999999999999998 1.224646799147353e-16 1.9368511846375947e-08 0.0 1.9368511846375947e-08 0.0 -0.9999999999999998 1.224646799147353e-16
1026194048.5121281 -0.9999999999999998 1.224646799147353e-16 1.93187381618012e-08 0.0 1.93187381618012e-08 0.0 -0.9999999999999998 1.224646799147353e-16
1026281570.3925983 -0.9999999999999998 1.224646799147353e-16 1.9269121429369207e-08 0.0 1.9269121429369207e-08 0.0 -0.9999999999999998 1.224646799147353e-16
1026369092.2730684 -0.9999999999999998 1.224646799147353e-16 1.9219661064080313e-08 0.0 1.9219661064080313e-08 0.0 -0.9999999999999998 1.224646799147353e-16
1026456614.1535385 -0.9999999999999998 1.224646799147353e-16 1.9170356483447658e-08 0.0 1.9170356483447658e-08 0.0 -0.9999999999999998 1.224646799147353e-16
1026544136.0340086 -0.9999999999999998 1.224646799147353e-16 1.9121207107484272e-08 0.0 1.9121207107484272e-08 0.0 -0.9999999999999998 1.224646799147353e-16
1026631657.9144788 -0.9999999999999998 1.224646799147353e-16 1.9072212358691406e-08 0.0 1.9072212358691406e-08 0.0 -0.9999999999999998 1.224646799147353e-16
1026719179.7949488 -0.9999999999999998 1.224646799147353e-16 1.9023371662046858e-08 0.0 1.9023371662046858e-08 0.0 -0.9999999999999998 1.224646799147353e-16
1026806701.675419 -0.9999999999999998 1.224646799147353e-16 1.897468444499203e-08 0.0 1.897468444499203e-08 0.0 -0.9999999999999998 1.224646799147353e-16
1026894223.5558889 -0.9999999999999998 1.224646799147353e-16 1.8926150137421006e-08 0.0 1.8926150137421006e-08 0.0 -0.9999999999999998 1.224646799147353e-16
1026981745.436359 -0.9999999999999998 1.224646799147353e-16 1.887776817166737e-08 0.0 1.887776817166737e-08 0.0 -0.9999999999999998 1.224646799147353e-16
1027069267.3168291 -0.9999999999999998 1.224646799147353e-16 1.8829537982494127e-08 0.0 1.8829537982494127e-08 0.0 -0.9999999999999998 1.224646799147353e-16
1027156789.1972992 -0.9999999999999998 1.224646799147353e-16 1.8781459007080228e-08 0.0 1.8781459007080228e-08 0.0 -0.9999999999999998 1.224646799147353e-16
1027244311.0777694 -0.9999999999999998 1.224646799147353e-16 1.8733530685009964e-08 0.0 1.8733530685009964e-08 0.0 -0.9999999999999998 1.224646799147353e-16
1027331832.9582394 -0.9999999999999998 1.224646799147353e-16 1.8685752458261106e-08 0.0 1.8685752458261106e-08 0.0 -0.9999999999999998 1.224646799147353e-16
1027419354.8387096 -0.9999999999999998 1.224646799147353e-16 1.8638123771193e-08 0.0 1.8638123771193e-08 0.0 -0.9999999999999998 1.224646799147353e-16
1027506876.7191797 -0.9999999999999998 1.224646799147353e-16 1.8590644070535623e-08 0.0 1.8590644070535623e-08 0.0 -0.9999999999999998 1.224646799147353e-16
1027594398.5996499 -0.9999999999999998 1.224646799147353e-16 1.854331280537776e-08 0.0 1.854331280537776e-08 0.0 -0.9999999999999998 1.224646799147353e-16
1027681920.48012 -0.9999999999999998 1.224646799147353e-16 1.8496129427155572e-08 0.0 1.8496129427155572e-08 0.0 -0.9999999999999998 1.224646799147353e-16
1027769442.3605901 -0.9999999999999998 1.224646799147353e-16 1.844909338964155e-08 0.0 1.844909338964155e-08 0.0 -0.9999999999999998 1.224646799147353e-16
1027856964.2410603 -0.9999999999999998 1.224646799147353e-16 1.8402204148933043e-08 0.0 1.8402204148933043e-08 0.0 -0.9999999999999998 1.224646799147353e-16
1027944486.1215303 -0.9999999999999998 1.224646799147353e-16 1.8355461163441396e-08 0.0 1.8355461163441396e-08 0.0 -0.9999999999999998 1.224646799147353e-16
1028032008.0020005 -0.9999999999999998 1.224646799147353e-16 1.8308863893880203e-08 0.0 1.8308863893880203e-08 0.0 -0.9999999999999998 1.224646799147353e-16
1028119529.8824706 -0.9999999999999998 1.224646799147353e-16 1.8262411803254884e-08 0.0 1.8262411803254884e-08 0.0 -0.9999999999999998 1.224646799147353e-16
1028207051.7629406 -0.9999999999999998 1.224646799147353e-16 1.8216104356851387e-08 0.0 1.8216104356851387e-08 0.0 -0.9999999999999998 1.224646799147353e-16
1028294573.6434108 -0.9999999999999998 1.224646799147353e-16 1.8169941022225054e-08 0.0 1.8169941022225054e-08 0.0 -0.9999999999999998 1.224646799147353e-16
1028382095.523881 -0.9999999999999998 1.224646799147353e-16 1.812392126919004e-08 0.0 1.812392126919004e-08 0.0 -0.9999999999999998 1.224646799147353e-16
1028469617.404351 -0.9999999999999998 1.224646799147353e-16 1.8078044569808436e-08 0.0 1.8078044569808436e-08 0.0 -0.9999999999999998 1.224646799147353e-16
1028557139.2848212 -0.9999999999999998 1.224646799147353e-16 1.803231039837916e-08 0.0 1.803231039837916e-08 0.0 -0.9999999999999998 1.224646799147353e-16
1028644661.1652913 -0.9999999999999998 1.224646799147353e-16 1.7986718231427507e-08 0.0 1.7986718231427507e-08 0.0 -0.9999999999999998 1.224646799147353e-16
1028732183.0457615 -0.9999999999999998 1.224646799147353e-16 1.794126754769463e-08 0.0 1.794126754769463e-08 0.0 -0.9999999999999998 1.224646799147353e-16
1028819704.9262315 -0.9999999999999998 1.224646799147353e-16 1.7895957828126603e-08 0.0 1.7895957828126603e-08 0.0 -0.9999999999999998 1.224646799147353e-16
1028907226.8067017 -0.9999999999999998 1.224646799147353e-16 1.7850788555864012e-08 0.0 1.7850788555864012e-08 0.0 -0.9999999999999998 1.224646799147353e-16
1028994748.6871718 -0.9999999999999998 1.224646799147353e-16 1.7805759216231593e-08 0.0 1.7805759216231593e-08 0.0 -0.9999999999999998 1.224646799147353e-16
1029082270.5676419 -0.9999999999999998 1.224646799147353e-16 1.7760869296727434e-08 0.0 1.7760869296727434e-08 0.0 -0.9999999999999998 1.224646799147353e-16
1029169792.448112 -0.9999999999999998 1.224646799147353e-16 1.7716118287012878e-08 0.0 1.7716118287012878e-08 0.0 -0.9999999999999998 1.224646799147353e-16
1029257314.3285822 -0.9999999999999998 1.224646799147353e-16 1.767150567890212e-08 0.0 1.767150567890212e-08 0.0 -0.9999999999999998 1.224646799147353e-16
1029344836.2090522 -0.9999999999999998 1.224646799147353e-16 1.7627030966352225e-08 0.0 1.7627030966352225e-08 0.0 -0.9999999999999998 1.224646799147353e-16
1029432358.0895224 -0.9999999999999998 1.224646799147353e-16 1.758269364545217e-08 0.0 1.758269364545217e-08 0.0 -0.9999999999999998 1.224646799147353e-16
1029519879.9699925 -0.9999999999999998 1.224646799147353e-16 1.753849321441336e-08 0.0 1.753849321441336e-08 0.0 -0.9999999999999998 1.224646799147353e-16
1029607401.8504627 -0.9999999999999998 1.224646799147353e-16 1.749442917355938e-08 0.0 1.749442917355938e-08 0.0 -0.9999999999999998 1.224646799147353e-16
1029694923.7309327 -0.9999999999999998 1.224646799147353e-16 1.745050102531576e-08 0.0 1.745050102531576e-08 0.0 -0.9999999999999998 1.224646799147353e-16
1029782445.6114029 -0.9999999999999998 1.224646799147353e-16 1.7406708274199896e-08 0.0 1.7406708274199896e-08 0.0 -0.9999999999999998 1.224646799147353e-16
1029869967.491873 -0.9999999999999998 1.224646799147353e-16 1.7363050426811638e-08 0.0 1.7363050426811638e-08 0.0 -0.9999999999999998 1.224646799147353e-16
1029957489.3723431 -0.9999999999999998 1.224646799147353e-16 1.7319526991822612e-08 0.0 1.7319526991822612e-08 0.0 -0.9999999999999998 1.224646799147353e-16
1030045011.2528132 -0.9999999999999998 1.224646799147353e-16 1.7276137479966977e-08 0.0 1.7276137479966977e-08 0.0 -0.9999999999999998 1.224646799147353e-16
1030132533.1332834 -0.9999999999999998 1.224646799147353e-16 1.7232881404031412e-08 0.0 1.7232881404031412e-08 0.0 -0.9999999999999998 1.224646799147353e-16
1030220055.0137534 -0.9999999999999998 1.224646799147353e-16 1.718975827884548e-08 0.0 1.718975827884548e-08 0.0 -0.9999999999999998 1.224646799147353e-16
1030307576.8942236 -0.9999999999999998 1.224646799147353e-16 1.714676762127183e-08 0.0 1.714676762127183e-08 0.0 -0.9999999999999998 1.224646799147353e-16
1030395098.7746937 -0.9999999999999998 1.224646799147353e-16 1.7103908950196368e-08 0.0 1.7103908950196368e-08 0.0 -0.9999999999999998 1.224646799147353e-16
1030482620.6551639 -0.9999999999999998 1.224646799147353e-16 1.7061181786519128e-08 0.0 1.7061181786519128e-08 0.0 -0.9999999999999998 1.224646799147353e-16
1030570142.5356339 -0.9999999999999998 1.224646799147353e-16 1.701858565314447e-08 0.0 1.701858565314447e-08 0.0 -0.9999999999999998 1.224646799147353e-16
1030657664.4161041 -0.9999999999999998 1.224646799147353e-16 1.6976120074971347e-08 0.0 1.6976120074971347e-08 0.0 -0.9999999999999998 1.224646799147353e-16
1030745186.2965742 -0.9999999999999998 1.224646799147353e-16 1.6933784578884682e-08 0.0 1.6933784578884682e-08 0.0 -0.9999999999999998 1.224646799147353e-16
1030832708.1770443 -0.9999999999999998 1.224646799147353e-16 1.6891578693744943e-08 0.0 1.6891578693744943e-08 0.0 -0.9999999999999998 1.224646799147353e-16
1030920230.0575144 -0.9999999999999998 1.224646799147353e-16 1.684950195037946e-08 0.0 1.684950195037946e-08 0.0 -0.9999999999999998 1.224646799147353e-16
1031007751.9379846 -0.9999999999999998 1.224646799147353e-16 1.680755388157288e-08 0.0 1.680755388157288e-08 0.0 -0.9999999999999998 1.224646799147353e-16
1031095273.8184546 -0.9999999999999998 1.224646799147353e-16 1.6765734022058347e-08 0.0 1.6765734022058347e-08 0.0 -0.9999999999999998 1.224646799147353e-16
1031182795.6989248 -0.9999999999999998 1.224646799147353e-16 1.6724041908507652e-08 0.0 1.6724041908507652e-08 0.0 -0.9999999999999998 1.224646799147353e-16
1031270317.5793949 -0.9999999999999998 1.224646799147353e-16 1.668247707952241e-08 0.0 1.668247707952241e-08 0.0 -0.9999999999999998 1.224646799147353e-16
1031357839.459865 -0.9999999999999999 1.224646799147353e-16 1.6641039075625423e-08 0.0 1.6641039075625423e-08 0.0 -0.9999999999999999 1.224646799147353e-16
1031445361.3403351 -0.9999999999999999 1.224646799147353e-16 1.659972743925063e-08 0.0 1.659972743925063e-08 0.0 -0.9999999999999999 1.224646799147353e-16
1031532883.2208053 -0.9999999999999999 1.224646799147353e-16 1.6558541714734996e-08 0.0 1.6558541714734996e-08 0.0 -0.9999999999999999 1.224646799147353e-16
1031620405.1012754 -0.9999999999999999 1.224646799147353e-16 1.6517481448309333e-08 0.0 1.6517481448309333e-08 0.0 -0.9999999999999999 1.224646799147353e-16
1031707926.9817455 -0.9999999999999999 1.224646799147353e-16 1.6476546188089026e-08 0.0 1.6476546188089026e-08 0.0 -0.9999999999999999 1.224646799147353e-16
1031795448.8622156 -0.9999999999999999 1.224646799147353e-16 1.643573548406556e-08 0.0 1.643573548406556e-08 0.0 -0.9999999999999999 1.224646799147353e-16
1031882970.7426858 -0.9999999999999999 1.224646799147353e-16 1.6395048888097536e-08 0.0 1.6395048888097536e-08 0.0 -0.9999999999999999 1.224646799147353e-16
1031970492.6231558 -0.9999999999999999 1.224646799147353e-16 1.6354485953902377e-08 0.0 1.6354485953902377e-08 0.0 -0.9999999999999999 1.224646799147353e-16
1032058014.503626 -0.9999999999999999 1.224646799147353e-16 1.6314046237046555e-08 0.0 1.6314046237046555e-08 0.0 -0.9999999999999999 1.224646799147353e-16
1032145536.3840961 -0.9999999999999999 1.224646799147353e-16 1.6273729294937964e-08 0.0 1.6273729294937964e-08 0.0 -0.9999999999999999 1.224646799147353e-16
1032233058.2645662 -0.9999999999999999 1.224646799147353e-16 1.623353468681684e-08 0.0 1.623353468681684e-08 0.0 -0.9999999999999999 1.224646799147353e-16
1032320580.1450363 -0.9999999999999999 1.224646799147353e-16 1.6193461973747196e-08 0.0 1.6193461973747196e-08 0.0 -0.9999999999999999 1.224646799147353e-16
1032408102.0255065 -0.9999999999999999 1.224646799147353e-16 1.6153510718608273e-08 0.0 1.6153510718608273e-08 0.0 -0.9999999999999999 1.224646799147353e-16
1032495623.9059767 -0.9999999999999999 1.224646799147353e-16 1.611368048608617e-08 0.0 1.611368048608617e-08 0.0 -0.9999999999999999 1.224646799147353e-16
1032583145.7864467 -0.9999999999999999 1.224646799147353e-16 1.607397084266544e-08 0.0 1.607397084266544e-08 0.0 -0.9999999999999999 1.224646799147353e-16
1032670667.6669168 -0.9999999999999999 1.224646799147353e-16 1.603438135662011e-08 0.0 1.603438135662011e-08 0.0 -0.9999999999999999 1.224646799147353e-16
1032758189.547387 -0.9999999999999999 1.224646799147353e-16 1.5994911598006237e-08 0.0 1.5994911598006237e-08 0.0 -0.9999999999999999 1.224646799147353e-16
1032845711.427857 -0.9999999999999999 1.224646799147353e-16 1.595556113865296e-08 0.0 1.595556113865296e-08 0.0 -0.9999999999999999 1.224646799147353e-16
1032933233.3083272 -0.9999999999999999 1.224646799147353e-16 1.5916329552154435e-08 0.0 1.5916329552154435e-08 0.0 -0.9999999999999999 1.224646799147353e-16
1033020755.1887974 -0.9999999999999999 1.224646799147353e-16 1.587721641386128e-08 0.0 1.587721641386128e-08 0.0 -0.9999999999999999 1.224646799147353e-16
1033108277.0692674 -0.9999999999999999 1.224646799147353e-16 1.583822130087316e-08 0.0 1.583822130087316e-08 0.0 -0.9999999999999999 1.224646799147353e-16
1033195798.9497375 -0.9999999999999999 1.224646799147353e-16 1.5799343792029637e-08 0.0 1.5799343792029637e-08 0.0 -0.9999999999999999 1.224646799147353e-16
1033283320.8302077 -0.9999999999999999 1.224646799147353e-16 1.5760583467902933e-08 0.0 1.5760583467902933e-08 0.0 -0.9999999999999999 1.224646799147353e-16
1033370842.7106779 -0.9999999999999999 1.224646799147353e-16 1.572193991078945e-08 0.0 1.572193991078945e-08 0.0 -0.9999999999999999 1.224646799147353e-16
1033458364.5911479 -0.9999999999999999 1.224646799147353e-16 1.5683412704701552e-08 0.0 1.5683412704701552e-08 0.0 -0.9999999999999999 1.224646799147353e-16
1033545886.471618 -0.9999999999999999 1.224646799147353e-16 1.5645001435360164e-08 0.0 1.5645001435360164e-08 0.0 -0.9999999999999999 1.224646799147353e-16
1033633408.3520882 -0.9999999999999999 1.224646799147353e-16 1.5606705690186355e-08 0.0 1.5606705690186355e-08 0.0 -0.9999999999999999 1.224646799147353e-16
1033720930.2325583 -0.9999999999999999 1.224646799147353e-16 1.556852505829374e-08 0.0 1.556852505829374e-08 0.0 -0.9999999999999999 1.224646799147353e-16
1033808452.1130284 -0.9999999999999999 1.224646799147353e-16 1.5530459130480275e-08 0.0 1.5530459130480275e-08 0.0 -0.9999999999999999 1.224646799147353e-16
1033895973.9934986 -0.9999999999999999 1.224646799147353e-16 1.5492507499220715e-08 0.0 1.5492507499220715e-08 0.0 -0.9999999999999999 1.224646799147353e-16
1033983495.8739686 -0.9999999999999999 1.224646799147353e-16 1.5454669758658948e-08 0.0 1.5454669758658948e-08 0.0 -0.9999999999999999 1.224646799147353e-16
1034071017.7544388 -0.9999999999999999 1.224646799147353e-16 1.5416945504599934e-08 0.0 1.5416945504599934e-08 0.0 -0.9999999999999999 1.224646799147353e-16
1034158539.6349089 -0.9999999999999999 1.224646799147353e-16 1.537933433450214e-08 0.0 1.537933433450214e-08 0.0 -0.9999999999999999 1.224646799147353e-16
1034246061.515379 -0.9999999999999999 1.224646799147353e-16 1.53418358474702e-08 0.0 1.53418358474702e-08 0.0 -0.9999999999999999 1.224646799147353e-16
1034333583.3958491 -0.9999999999999999 1.224646799147353e-16 1.530444964424664e-08 0.0 1.530444964424664e-08 0.0 -0.9999999999999999 1.224646799147353e-16
1034421105.2763193 -0.9999999999999999 1.224646799147353e-16 1.5267175327204887e-08 0.0 1.5267175327204887e-08 0.0 -0.9999999999999999 1.224646799147353e-16
1034508627.1567894 -0.9999999999999999 1.224646799147353e-16 1.5230012500341487e-08 0.0 1.5230012500341487e-08 0.0 -0.9999999999999999 1.224646799147353e-16
1034596149.0372595 -0.9999999999999999 1.224646799147353e-16 1.519296076926882e-08 0.0 1.519296076926882e-08 0.0 -0.9999999999999999 1.224646799147353e-16
1034683670.9177296 -0.9999999999999999 1.224646799147353e-16 1.5156019741207092e-08 0.0 1.5156019741207092e-08 0.0 -0.9999999999999999 1.224646799147353e-16
1034771192.7981998 -0.9999999999999999 1.224646799147353e-16 1.5119189024977617e-08 0.0 1.5119189024977617e-08 0.0 -0.9999999999999999 1.224646799147353e-16
1034858714.6786698 -0.9999999999999999 1.224646799147353e-16 1.5082468230995095e-08 0.0 1.5082468230995095e-08 0.0 -0.9999999999999999 1.224646799147353e-16
1034946236.55914 -0.9999999999999999 1.224646799147353e-16 1.504585697126001e-08 0.0 1.504585697126001e-08 0.0 -0.9999999999999999 1.224646799147353e-16
1035033758.4396099 -0.9999999999999999 1.224646799147353e-16 1.5009354859352025e-08 0.0 1.5009354859352025e-08 0.0 -0.9999999999999999 1.224646799147353e-16
1035121280.32008 -0.9999999999999999 1.224646799147353e-16 1.4972961510421857e-08 0.0 1.4972961510421857e-08 0.0 -0.9999999999999999 1.224646799147353e-16
1035208802.2005501 -0.9999999999999999 1.224646799147353e-16 1.4936676541184834e-08 0.0 1.4936676541184834e-08 0.0 -0.9999999999999999 1.224646799147353e-16
1035296324.0810202 -0.9999999999999999 1.224646799147353e-16 1.4900499569912981e-08 0.0 1.4900499569912981e-08 0.0 -0.9999999999999999 1.224646799147353e-16
1035383845.9614904 -0.9999999999999999 1.224646799147353e-16 1.4864430216428644e-08 0.0 1.4864430216428644e-08 0.0 -0.9999999999999999 1.224646799147353e-16
1035471367.8419604 -0.9999999999999999 1.224646799147353e-16 1.4828468102096614e-08 0.0 1.4828468102096614e-08 0.0 -0.9999999999999999 1.224646799147353e-16
1035558889.7224306 -0.9999999999999999 1.224646799147353e-16 1.4792612849817615e-08 0.0 1.4792612849817615e-08 0.0 -0.9999999999999999 1.224646799147353e-16
1035646411.6029007 -0.9999999999999999 1.224646799147353e-16 1.4756864084020782e-08 0.0 1.4756864084020782e-08 0.0 -0.9999999999999999 1.224646799147353e-16
1035733933.4833708 -0.9999999999999999 1.224646799147353e-16 1.4721221430657047e-08 0.0 1.4721221430657047e-08 0.0 -0.9999999999999999 1.224646799147353e-16
1035821455.3638409 -0.9999999999999999 1.224646799147353e-16 1.4685684517192066e-08 0.0 1.4685684517192066e-08 0.0 -0.9999999999999999 1.224646799147353e-16
1035908977.2443111 -0.9999999999999999 1.224646799147353e-16 1.465025297259904e-08 0.0 1.465025297259904e-08 0.0 -0.9999999999999999 1.224646799147353e-16
1035996499.1247813 -0.9999999999999999 1.224646799147353e-16 1.461492642735219e-08 0.0 1.461492642735219e-08 0.0 -0.9999999999999999 1.224646799147353e-16
1036084021.0052513 -0.9999999999999999 1.224646799147353e-16 1.4579704513419482e-08 0.0 1.4579704513419482e-08 0.0 -0.9999999999999999 1.224646799147353e-16
1036171542.8857214 -0.9999999999999999 1.224646799147353e-16 1.4544586864256028e-08 0.0 1.4544586864256028e-08 0.0 -0.9999999999999999 1.224646799147353e-16
1036259064.7661916 -0.9999999999999999 1.224646799147353e-16 1.4509573114797504e-08 0.0 1.4509573114797504e-08 0.0 -0.9999999999999999 1.224646799147353e-16
1036346586.6466616 -0.9999999999999999 1.224646799147353e-16 1.447466290145277e-08 0.0 1.447466290145277e-08 0.0 -0.9999999999999999 1.224646799147353e-16
1036434108.5271318 -0.9999999999999999 1.224646799147353e-16 1.4439855862097897e-08 0.0 1.4439855862097897e-08 0.0 -0.9999999999999999 1.224646799147353e-16
1036521630.407602 -0.9999999999999999 1.224646799147353e-16 1.44051516360686e-08 0.0 1.44051516360686e-08 0.0 -0.9999999999999999 1.224646799147353e-16
1036609152.288072 -0.9999999999999999 1.224646799147353e-16 1.4370549864154613e-08 0.0 1.4370549864154613e-08 0.0 -0.9999999999999999 1.224646799147353e-16
1036696674.1685421 -0.9999999999999999 1.224646799147353e-16 1.4336050188591961e-08 0.0 1.4336050188591961e-08 0.0 -0.9999999999999999 1.224646799147353e-16
1036784196.0490123 -0.9999999999999999 1.224646799147353e-16 1.4301652253057399e-08 0.0 1.4301652253057399e-08 0.0 -0.9999999999999999 1.224646799147353e-16
1036871717.9294825 -0.9999999999999999 1.224646799147353e-16 1.4267355702661036e-08 0.0 1.4267355702661036e-08 0.0 -0.9999999999999999 1.224646799147353e-16
1036959239.8099525 -0.9999999999999999 1.224646799147353e-16 1.4233160183940299e-08 0.0 1.4233160183940299e-08 0.0 -0.9999999999999999 1.224646799147353e-16
1037046761.6904227 -0.9999999999999999 1.224646799147353e-16 1.4199065344853044e-08 0.0 1.4199065344853044e-08 0.0 -0.9999999999999999 1.224646799147353e-16
1037134283.5708928 -0.9999999999999999 1.224646799147353e-16 1.4165070834771648e-08 0.0 1.4165070834771648e-08 0.0 -0.9999999999999999 1.224646799147353e-16
1037221805.4513628 -0.9999999999999999 1.224646799147353e-16 1.4131176304476108e-08 0.0 1.4131176304476108e-08 0.0 -0.9999999999999999 1.224646799147353e-16
1037309327.331833 -0.9999999999999999 1.224646799147353e-16 1.4097381406147705e-08 0.0 1.4097381406147705e-08 0.0 -0.9999999999999999 1.224646799147353e-16
1037396849.2123032 -0.9999999999999999 1.224646799147353e-16 1.406368579336284e-08 0.0 1.406368579336284e-08 0.0 -0.9999999999999999 1.224646799147353e-16
1037484371.0927732 -0.9999999999999999 1.224646799147353e-16 1.403008912108664e-08 0.0 1.403008912108664e-08 0.0 -0.9999999999999999 1.224646799147353e-16
1037571892.9732434 -0.9999999999999999 1.224646799147353e-16 1.3996591045666499e-08 0.0 1.3996591045666499e-08 0.0 -0.9999999999999999 1.224646799147353e-16
1037659414.8537135 -0.9999999999999999 1.224646799147353e-16 1.3963191224825891e-08 0.0 1.3963191224825891e-08 0.0 -0.9999999999999999 1.224646799147353e-16
1037746936.7341837 -0.9999999999999999 1.224646799147353e-16 1.392988931765833e-08 0.0 1.392988931765833e-08 0.0 -0.9999999999999999 1.224646799147353e-16
1037834458.6146537 -0.9999999999999999 1.224646799147353e-16 1.3896684984620895e-08 0.0 1.3896684984620895e-08 0.0 -0.9999999999999999 1.224646799147353e-16
1037921980.4951239 -0.9999999999999999 1.224646799147353e-16 1.3863577887528205e-08 0.0 1.3863577887528205e-08 0.0 -0.9999999999999999 1.224646799147353e-16
1038009502.375594 -0.9999999999999999 1.224646799147353e-16 1.3830567689546197e-08 0.0 1.3830567689546197e-08 0.0 -0.9999999999999999 1.224646799147353e-16
1038097024.256064 -0.9999999999999999 1.224646799147353e-16 1.3797654055186077e-08 0.0 1.3797654055186077e-08 0.0 -0.9999999999999999 1.224646799147353e-16
1038184546.1365342 -0.9999999999999999 1.224646799147353e-16 1.3764836650298153e-08 0.0 1.3764836650298153e-08 0.0 -0.9999999999999999 1.224646799147353e-16
1038272068.0170044 -0.9999999999999999 1.224646799147353e-16 1.373211514206604e-08 0.0 1.373211514206604e-08 0.0 -0.9999999999999999 1.224646799147353e-16
1038359589.8974744 -0.9999999999999999 1.224646799147353e-16 1.369948919900031e-08 0.0 1.369948919900031e-08 0.0 -0.9999999999999999 1.224646799147353e-16
1038447111.7779446 -0.9999999999999999 1.224646799147353e-16 1.366695849093276e-08 0.0 1.366695849093276e-08 0.0 -0.9999999999999999 1.224646799147353e-16
1038534633.6584147 -0.9999999999999999 1.224646799147353e-16 1.363452268901008e-08 0.0 1.363452268901008e-08 0.0 -0.9999999999999999 1.224646799147353e-16
1038622155.5388848 -0.9999999999999999 1.224646799147353e-16 1.360218146568845e-08 0.0 1.360218146568845e-08 0.0 -0.9999999999999999 1.224646799147353e-16
1038709677.4193549 -0.9999999999999999 1.224646799147353e-16 1.35699344947273e-08 0.0 1.35699344947273e-08 0.0 -0.9999999999999999 1.224646799147353e-16
1038797199.2998251 -0.9999999999999999 1.224646799147353e-16 1.353778145118356e-08 0.0 1.353778145118356e-08 0.0 -0.9999999999999999 1.224646799147353e-16
1038884721.1802952 -0.9999999999999999 1.224646799147353e-16 1.3505722011405705e-08 0.0 1.3505722011405705e-08 0.0 -0.9999999999999999 1.224646799147353e-16
1038972243.0607653 -0.9999999999999999 1.224646799147353e-16 1.347375585302805e-08 0.0 1.347375585302805e-08 0.0 -0.9999999999999999 1.224646799147353e-16
1039059764.9412354 -0.9999999999999999 1.224646799147353e-16 1.3441882654964927e-08 0.0 1.3441882654964927e-08 0.0 -0.9999999999999999 1.224646799147353e-16
1039147286.8217056 -0.9999999999999999 1.224646799147353e-16 1.341010209740499e-08 0.0 1.341010209740499e-08 0.0 -0.9999999999999999 1.224646799147353e-16
1039234808.7021756 -0.9999999999999999 1.224646799147353e-16 1.3378413861805412e-08 0.0 1.3378413861805412e-08 0.0 -0.9999999999999999 1.224646799147353e-16
1039322330.5826458 -0.9999999999999999 1.224646799147353e-16 1.334681763088629e-08 0.0 1.334681763088629e-08 0.0 -0.9999999999999999 1.224646799147353e-16
1039409852.4631159 -0.9999999999999999 1.224646799147353e-16 1.3315313088624798e-08 0.0 1.3315313088624798e-08 0.0 -0.9999999999999999 1.224646799147353e-16
1039497374.343586 -0.9999999999999999 1.224646799147353e-16 1.3283899920249844e-08 0.0 1.3283899920249844e-08 0.0 -0.9999999999999999 1.224646799147353e-16
1039584896.2240561 -0.9999999999999999 1.224646799147353e-16 1.3252577812235997e-08 0.0 1.3252577812235997e-08 0.0 -0.9999999999999999 1.224646799147353e-16
1039672418.1045263 -0.9999999999999999 1.224646799147353e-16 1.3221346452298576e-08 0.0 1.3221346452298576e-08 0.0 -0.9999999999999999 1.224646799147353e-16
1039759939.9849964 -0.9999999999999999 1.224646799147353e-16 1.3190205529387398e-08 0.0 1.3190205529387398e-08 0.0 -0.9999999999999999 1.224646799147353e-16
1039847461.8654662 -0.9999999999999999 1.224646799147353e-16 1.3159154733681868e-08 0.0 1.3159154733681868e-08 0.0 -0.9999999999999999 1.224646799147353e-16
1039934983.7459364 -0.9999999999999999 1.224646799147353e-16 1.3128193756584695e-08 0.0 1.3128193756584695e-08 0.0 -0.9999999999999999 1.224646799147353e-16
1040022505.6264066 -0.9999999999999999 1.224646799147353e-16 1.3097322290717463e-08 0.0 1.3097322290717463e-08 0.0 -0.9999999999999999 1.224646799147353e-16
1040110027.5068766 -0.9999999999999999 1.224646799147353e-16 1.306654002991435e-08 0.0 1.306654002991435e-08 0.0 -0.9999999999999999 1.224646799147353e-16
1040197549.3873467 -0.9999999999999999 1.224646799147353e-16 1.303584666921704e-08 0.0 1.303584666921704e-08 0.0 -0.9999999999999999 1.224646799147353e-16
1040285071.2678169 -0.9999999999999999 1.224646799147353e-16 1.3005241904869168e-08 0.0 1.3005241904869168e-08 0.0 -0.9999999999999999 1.224646799147353e-16
1040372593.148287 -0.9999999999999999 1.224646799147353e-16 1.2974725434311375e-08 0.0 1.2974725434311375e-08 0.0 -0.9999999999999999 1.224646799147353e-16
1040460115.0287571 -0.9999999999999999 1.224646799147353e-16 1.2944296956175517e-08 0.0 1.2944296956175517e-08 0.0 -0.9999999999999999 1.224646799147353e-16
1040547636.9092273 -0.9999999999999999 1.224646799147353e-16 1.2913956170279363e-08 0.0 1.2913956170279363e-08 0.0 -0.9999999999999999 1.224646799147353e-16
1040635158.7896974 -0.9999999999999999 1.224646799147353e-16 1.2883702777621642e-08 0.0 1.2883702777621642e-08 0.0 -0.9999999999999999 1.224646799147353e-16
1040722680.6701674 -0.9999999999999999 1.224646799147353e-16 1.2853536480376707e-08 0.0 1.2853536480376707e-08 0.0 -0.9999999999999999 1.224646799147353e-16
1040810202.5506376 -0.9999999999999999 1.224646799147353e-16 1.2823456981888982e-08 0.0 1.2823456981888982e-08 0.0 -0.9999999999999999 1.224646799147353e-16
1040897724.4311078 -0.9999999999999999 1.224646799147353e-16 1.2793463986668078e-08 0.0 1.2793463986668078e-08 0.0 -0.9999999999999999 1.224646799147353e-16
1040985246.3115778 -0.9999999999999999 1.224646799147353e-16 1.2763557200383602e-08 0.0 1.2763557200383602e-08 0.0 -0.9999999999999999 1.224646799147353e-16
1041072768.192048 -0.9999999999999999 1.224646799147353e-16 1.2733736329859794e-08 0.0 1.2733736329859794e-08 0.0 -0.9999999999999999 1.224646799147353e-16
1041160290.0725181 -0.9999999999999999 1.224646799147353e-16 1.2704001083070615e-08 0.0 1.2704001083070615e-08 0.0 -0.9999999999999999 1.224646799147353e-16
1041247811.9529883 -0.9999999999999999 1.224646799147353e-16 1.2674351169134451e-08 0.0 1.2674351169134451e-08 0.0 -0.9999999999999999 1.224646799147353e-16
1041335333.8334583 -0.9999999999999999 1.224646799147353e-16 1.2644786298309413e-08 0.0 1.2644786298309413e-08 0.0 -0.9999999999999999 1.224646799147353e-16
1041422855.7139285 -0.9999999999999999 1.224646799147353e-16 1.261530618198766e-08 0.0 1.261530618198766e-08 0.0 -0.9999999999999999 1.224646799147353e-16
1041510377.5943986 -0.9999999999999999 1.224646799147353e-16 1.2585910532690911e-08 0.0 1.2585910532690911e-08 0.0 -0.9999999999999999 1.224646799147353e-16
1041597899.4748687 -0.9999999999999999 1.224646799147353e-16 1.255659906406537e-08 0.0 1.255659906406537e-08 0.0 -0.9999999999999999 1.224646799147353e-16
1041685421.3553388 -0.9999999999999999 1.224646799147353e-16 1.2527371490876422e-08 0.0 1.2527371490876422e-08 0.0 -0.9999999999999999 1.224646799147353e-16
1041772943.235809 -0.9999999999999999 1.224646799147353e-16 1.2498227529003977e-08 0.0 1.2498227529003977e-08 0.0 -0.9999999999999999 1.224646799147353e-16
1041860465.116279 -0.9999999999999999 1.224646799147353e-16 1.2469166895437574e-08 0.0 1.2469166895437574e-08 0.0 -0.9999999999999999 1.224646799147353e-16
1041947986.9967492 -0.9999999999999999 1.224646799147353e-16 1.2440189308271354e-08 0.0 1.2440189308271354e-08 0.0 -0.9999999999999999 1.224646799147353e-16
1042035508.8772193 -0.9999999999999999 1.224646799147353e-16 1.241129448669883e-08 0.0 1.241129448669883e-08 0.0 -0.9999999999999999 1.224646799147353e-16
1042123030.7576895 -0.9999999999999999 1.224646799147353e-16 1.2382482151009015e-08 0.0 1.2382482151009015e-08 0.0 -0.9999999999999999 1.224646799147353e-16
1042210552.6381595 -0.9999999999999999 1.224646799147353e-16 1.235375202258057e-08 0.0 1.235375202258057e-08 0.0 -0.9999999999999999 1.224646799147353e-16
1042298074.5186297 -0.9999999999999999 1.224646799147353e-16 1.2325103823877397e-08 0.0 1.2325103823877397e-08 0.0 -0.9999999999999999 1.224646799147353e-16
1042385596.3990998 -0.9999999999999999 1.224646799147353e-16 1.2296537278444005e-08 0.0 1.2296537278444005e-08 0.0 -0.9999999999999999 1.224646799147353e-16
1042473118.2795699 -0.9999999999999999 1.224646799147353e-16 1.2268052110900516e-08 0.0 1.2268052110900516e-08 0.0 -0.9999999999999999 1.224646799147353e-16
1042560640.16004 -0.9999999999999999 1.224646799147353e-16 1.2239648046938034e-08 0.0 1.2239648046938034e-08 0.0 -0.9999999999999999 1.224646799147353e-16
1042648162.0405102 -0.9999999999999999 1.224646799147353e-16 1.2211324813313881e-08 0.0 1.2211324813313881e-08 0.0 -0.9999999999999999 1.224646799147353e-16
1042735683.9209802 -0.9999999999999999 1.224646799147353e-16 1.218308213784708e-08 0.0 1.218308213784708e-08 0.0 -0.9999999999999999 1.224646799147353e-16
1042823205.8014504 -0.9999999999999999 1.224646799147353e-16 1.2154919749413367e-08 0.0 1.2154919749413367e-08 0.0 -0.9999999999999999 1.224646799147353e-16
1042910727.6819205 -0.9999999999999999 1.224646799147353e-16 1.2126837377940775e-08 0.0 1.2126837377940775e-08 0.0 -0.9999999999999999 1.224646799147353e-16
1042998249.5623906 -0.9999999999999999 1.224646799147353e-16 1.209883475440505e-08 0.0 1.209883475440505e-08 0.0 -0.9999999999999999 1.224646799147353e-16
1043085771.4428607 -0.9999999999999999 1.224646799147353e-16 1.2070911610824763e-08 0.0 1.2070911610824763e-08 0.0 -0.9999999999999999 1.224646799147353e-16
1043173293.3233309 -0.9999999999999999 1.224646799147353e-16 1.2043067680257148e-08 0.0 1.2043067680257148e-08 0.0 -0.9999999999999999 1.224646799147353e-16
1043260815.203801 -0.9999999999999999 1.224646799147353e-16 1.2015302696793159e-08 0.0 1.2015302696793159e-08 0.0 -0.9999999999999999 1.224646799147353e-16
1043348337.0842711 -0.9999999999999999 1.224646799147353e-16 1.1987616395553356e-08 0.0 1.1987616395553356e-08 0.0 -0.9999999999999999 1.224646799147353e-16
1043435858.9647412 -0.9999999999999999 1.224646799147353e-16 1.1960008512682815e-08 0.0 1.1960008512682815e-08 0.0 -0.9999999999999999 1.224646799147353e-16
1043523380.8452114 -0.9999999999999999 1.224646799147353e-16 1.1932478785347186e-08 0.0 1.1932478785347186e-08 0.0 -0.9999999999999999 1.224646799147353e-16
1043610902.7256814 -0.9999999999999999 1.224646799147353e-16 1.1905026951728067e-08 0.0 1.1905026951728067e-08 0.0 -0.9999999999999999 1.224646799147353e-16
1043698424.6061516 -0.9999999999999999 1.224646799147353e-16 1.187765275101834e-08 0.0 1.187765275101834e-08 0.0 -0.9999999999999999 1.224646799147353e-16
1043785946.4866217 -0.9999999999999999 1.224646799147353e-16 1.1850355923417977e-08 0.0 1.1850355923417977e-08 0.0 -0.9999999999999999 1.224646799147353e-16
1043873468.3670918 -0.9999999999999999 1.224646799147353e-16 1.1823136210129667e-08 0.0 1.1823136210129667e-08 0.0 -0.9999999999999999 1.224646799147353e-16
1043960990.2475619 -0.9999999999999999 1.224646799147353e-16 1.179599335335424e-08 0.0 1.179599335335424e-08 0.0 -0.9999999999999999 1.224646799147353e-16
1044048512.1280321 -0.9999999999999999 1.224646799147353e-16 1.1768927096286471e-08 0.0 1.1768927096286471e-08 0.0 -0.9999999999999999 1.224646799147353e-16
1044136034.0085022 -0.9999999999999999 1.224646799147353e-16 1.1741937183110623e-08 0.0 1.1741937183110623e-08 0.0 -0.9999999999999999 1.224646799147353e-16
1044223555.8889723 -0.9999999999999999 1.224646799147353e-16 1.1715023358996424e-08 0.0 1.1715023358996424e-08 0.0 -0.9999999999999999 1.224646799147353e-16
1044311077.7694424 -0.9999999999999999 1.224646799147353e-16 1.168818537009419e-08 0.0 1.168818537009419e-08 0.0 -0.9999999999999999 1.224646799147353e-16
1044398599.6499126 -0.9999999999999999 1.224646799147353e-16 1.1661422963531175e-08 0.0 1.1661422963531175e-08 0.0 -0.9999999999999999 1.224646799147353e-16
1044486121.5303826 -0.9999999999999999 1.224646799147353e-16 1.1634735887407037e-08 0.0 1.1634735887407037e-08 0.0 -0.9999999999999999 1.224646799147353e-16
1044573643.4108528 -0.9999999999999999 1.224646799147353e-16 1.1608123890789508e-08 0.0 1.1608123890789508e-08 0.0 -0.9999999999999999 1.224646799147353e-16
1044661165.291323 -0.9999999999999999 1.224646799147353e-16 1.1581586723710232e-08 0.0 1.1581586723710232e-08 0.0 -0.9999999999999999 1.224646799147353e-16
1044748687.171793 -0.9999999999999999 1.224646799147353e-16 1.1555124137161e-08 0.0 1.1555124137161e-08 0.0 -0.9999999999999999 1.224646799147353e-16
1044836209.0522631 -0.9999999999999999 1.224646799147353e-16 1.1528735883088645e-08 0.0 1.1528735883088645e-08 0.0 -0.9999999999999999 1.224646799147353e-16
1044923730.9327333 -0.9999999999999999 1.224646799147353e-16 1.1502421714392077e-08 0.0 1.1502421714392077e-08 0.0 -0.9999999999999999 1.224646799147353e-16
1045011252.8132035 -0.9999999999999999 1.224646799147353e-16 1.1476181384917139e-08 0.0 1.1476181384917139e-08 0.0 -0.9999999999999999 1.224646799147353e-16
1045098774.6936735 -0.9999999999999999 1.224646799147353e-16 1.1450014649452915e-08 0.0 1.1450014649452915e-08 0.0 -0.9999999999999999 1.224646799147353e-16
1045186296.5741436 -0.9999999999999999 1.224646799147353e-16 1.1423921263727733e-08 0.0 1.1423921263727733e-08 0.0 -0.9999999999999999 1.224646799147353e-16
1045273818.4546138 -0.9999999999999999 1.224646799147353e-16 1.1397900984405002e-08 0.0 1.1397900984405002e-08 0.0 -0.9999999999999999 1.224646799147353e-16
1045361340.3350838 -0.9999999999999999 1.224646799147353e-16 1.1371953569079075e-08 0.0 1.1371953569079075e-08 0.0 -0.9999999999999999 1.224646799147353e-16
1045448862.215554 -0.9999999999999999 1.224646799147353e-16 1.134607877627122e-08 0.0 1.134607877627122e-08 0.0 -0.9999999999999999 1.224646799147353e-16
1045536384.0960242 -0.9999999999999999 1.224646799147353e-16 1.1320276365425747e-08 0.0 1.1320276365425747e-08 0.0 -0.9999999999999999 1.224646799147353e-16
1045623905.9764942 -0.9999999999999999 1.224646799147353e-16 1.1294546096906026e-08 0.0 1.1294546096906026e-08 0.0 -0.9999999999999999 1.224646799147353e-16
1045711427.8569643 -0.9999999999999999 1.224646799147353e-16 1.126888773199009e-08 0.0 1.126888773199009e-08 0.0 -0.9999999999999999 1.224646799147353e-16
1045798949.7374345 -0.9999999999999999 1.224646799147353e-16 1.124330103286752e-08 0.0 1.124330103286752e-08 0.0 -0.9999999999999999 1.224646799147353e-16
1045886471.6179045 -0.9999999999999999 1.224646799147353e-16 1.1217785762634537e-08 0.0 1.1217785762634537e-08 0.0 -0.9999999999999999 1.224646799147353e-16
1045973993.4983747 -0.9999999999999999 1.224646799147353e-16 1.1192341685290863e-08 0.0 1.1192341685290863e-08 0.0 -0.9999999999999999 1.224646799147353e-16
1046061515.3788449 -0.9999999999999999 1.224646799147353e-16 1.1166968565735247e-08 0.0 1.1166968565735247e-08 0.0 -0.9999999999999999 1.224646799147353e-16
1046149037.259315 -0.9999999999999999 1.224646799147353e-16 1.1141666169762111e-08 0.0 1.1141666169762111e-08 0.0 -0.9999999999999999 1.224646799147353e-16
1046236559.139785 -0.9999999999999999 1.224646799147353e-16 1.111643426405734e-08 0.0 1.111643426405734e-08 0.0 -0.9999999999999999 1.224646799147353e-16
1046324081.0202552 -0.9999999999999999 1.224646799147353e-16 1.1091272616194414e-08 0.0 1.1091272616194414e-08 0.0 -0.9999999999999999 1.224646799147353e-16
1046411602.9007254 -0.9999999999999999 1.224646799147353e-16 1.1066180994630848e-08 0.0 1.1066180994630848e-08 0.0 -0.9999999999999999 1.224646799147353e-16
1046499124.7811954 -0.9999999999999999 1.224646799147353e-16 1.1041159168704216e-08 0.0 1.1041159168704216e-08 0.0 -0.9999999999999999 1.224646799147353e-16
1046586646.6616656 -0.9999999999999999 1.224646799147353e-16 1.1016206908628284e-08 0.0 1.1016206908628284e-08 0.0 -0.9999999999999999 1.224646799147353e-16
1046674168.5421357 -0.9999999999999999 1.224646799147353e-16 1.0991323985489521e-08 0.0 1.0991323985489521e-08 0.0 -0.9999999999999999 1.224646799147353e-16
1046761690.4226058 -0.9999999999999999 1.224646799147353e-16 1.0966510171243026e-08 0.0 1.0966510171243026e-08 0.0 -0.9999999999999999 1.224646799147353e-16
1046849212.3030759 -0.9999999999999999 1.224646799147353e-16 1.0941765238709074e-08 0.0 1.0941765238709074e-08 0.0 -0.9999999999999999 1.224646799147353e-16
1046936734.1835461 -0.9999999999999999 1.224646799147353e-16 1.0917088961569162e-08 0.0 1.0917088961569162e-08 0.0 -0.9999999999999999 1.224646799147353e-16
1047024256.0640162 -0.9999999999999999 1.224646799147353e-16 1.0892481114362435e-08 0.0 1.0892481114362435e-08 0.0 -0.9999999999999999 1.224646799147353e-16
1047111777.9444863 -0.9999999999999999 1.224646799147353e-16 1.0867941472482116e-08 0.0 1.0867941472482116e-08 0.0 -0.9999999999999999 1.224646799147353e-16
1047199299.8249564 -0.9999999999999999 1.224646799147353e-16 1.0843469812171603e-08 0.0 1.0843469812171603e-08 0.0 -0.9999999999999999 1.224646799147353e-16
1047286821.7054266 -0.9999999999999999 1.224646799147353e-16 1.0819065910520993e-08 0.0 1.0819065910520993e-08 0.0 -0.9999999999999999 1.224646799147353e-16
1047374343.5858966 -0.9999999999999999 1.224646799147353e-16 1.0794729545463372e-08 0.0 1.0794729545463372e-08 0.0 -0.9999999999999999 1.224646799147353e-16
1047461865.4663668 -0.9999999999999999 1.224646799147353e-16 1.0770460495771275e-08 0.0 1.0770460495771275e-08 0.0 -0.9999999999999999 1.224646799147353e-16
1047549387.3468369 -0.9999999999999999 1.224646799147353e-16 1.0746258541053054e-08 0.0 1.0746258541053054e-08 0.0 -0.9999999999999999 1.224646799147353e-16
1047636909.227307 -0.9999999999999999 1.224646799147353e-16 1.072212346174939e-08 0.0 1.072212346174939e-08 0.0 -0.9999999999999999 1.224646799147353e-16
1047724431.1077771 -0.9999999999999999 1.224646799147353e-16 1.0698055039129602e-08 0.0 1.0698055039129602e-08 0.0 -0.9999999999999999 1.224646799147353e-16
1047811952.9882473 -0.9999999999999999 1.224646799147353e-16 1.0674053055288036e-08 0.0 1.0674053055288036e-08 0.0 -0.9999999999999999 1.224646799147353e-16
1047899474.8687174 -0.9999999999999999 1.224646799147353e-16 1.0650117293140881e-08 0.0 1.0650117293140881e-08 0.0 -0.9999999999999999 1.224646799147353e-16
1047986996.7491872 -0.9999999999999999 1.224646799147353e-16 1.0626247536422514e-08 0.0 1.0626247536422514e-08 0.0 -0.9999999999999999 1.224646799147353e-16
1048074518.6296574 -0.9999999999999999 1.224646799147353e-16 1.060244356968146e-08 0.0 1.060244356968146e-08 0.0 -0.9999999999999999 1.224646799147353e-16
1048162040.5101275 -0.9999999999999999 1.224646799147353e-16 1.0578705178277916e-08 0.0 1.0578705178277916e-08 0.0 -0.9999999999999999 1.224646799147353e-16
1048249562.3905976 -0.9999999999999999 1.224646799147353e-16 1.0555032148379636e-08 0.0 1.0555032148379636e-08 0.0 -0.9999999999999999 1.224646799147353e-16
1048337084.2710677 -0.9999999999999999 1.224646799147353e-16 1.05314242669585e-08 0.0 1.05314242669585e-08 0.0 -0.9999999999999999 1.224646799147353e-16
1048424606.1515379 -0.9999999999999999 1.224646799147353e-16 1.0507881321787453e-08 0.0 1.0507881321787453e-08 0.0 -0.9999999999999999 1.224646799147353e-16
1048512128.032008 -0.9999999999999999 1.224646799147353e-16 1.0484403101436613e-08 0.0 1.0484403101436613e-08 0.0 -0.9999999999999999 1.224646799147353e-16
1048599649.9124781 -0.9999999999999999 1.224646799147353e-16 1.0460989395270466e-08 0.0 1.0460989395270466e-08 0.0 -0.9999999999999999 1.224646799147353e-16
1048687171.7929482 -0.9999999999999999 1.224646799147353e-16 1.0437639993443785e-08 0.0 1.0437639993443785e-08 0.0 -0.9999999999999999 1.224646799147353e-16
1048774693.6734184 -0.9999999999999999 1.224646799147353e-16 1.041435468689894e-08 0.0 1.041435468689894e-08 0.0 -0.9999999999999999 1.224646799147353e-16
1048862215.5538884 -0.9999999999999999 1.224646799147353e-16 1.0391133267362098e-08 0.0 1.0391133267362098e-08 0.0 -0.9999999999999999 1.224646799147353e-16
1048949737.4343586 -0.9999999999999999 1.224646799147353e-16 1.0367975527340195e-08 0.0 1.0367975527340195e-08 0.0 -0.9999999999999999 1.224646799147353e-16
1049037259.3148288 -0.9999999999999999 1.224646799147353e-16 1.0344881260117306e-08 0.0 1.0344881260117306e-08 0.0 -0.9999999999999999 1.224646799147353e-16
1049124781.1952988 -0.9999999999999999 1.224646799147353e-16 1.0321850259751716e-08 0.0 1.0321850259751716e-08 0.0 -0.9999999999999999 1.224646799147353e-16
1049212303.075769 -0.9999999999999999 1.224646799147353e-16 1.0298882321072366e-08 0.0 1.0298882321072366e-08 0.0 -0.9999999999999999 1.224646799147353e-16
1049299824.9562391 -0.9999999999999999 1.224646799147353e-16 1.0275977239675658e-08 0.0 1.0275977239675658e-08 0.0 -0.9999999999999999 1.224646799147353e-16
1049387346.8367091 -0.9999999999999999 1.224646799147353e-16 1.0253134811922297e-08 0.0 1.0253134811922297e-08 0.0 -0.9999999999999999 1.224646799147353e-16
1049474868.7171793 -0.9999999999999999 1.224646799147353e-16 1.023035483493383e-08 0.0 1.023035483493383e-08 0.0 -0.9999999999999999 1.224646799147353e-16
1049562390.5976495 -0.9999999999999999 1.224646799147353e-16 1.020763710658976e-08 0.0 1.020763710658976e-08 0.0 -0.9999999999999999 1.224646799147353e-16
1049649912.4781196 -0.9999999999999999 1.224646799147353e-16 1.0184981425524076e-08 0.0 1.0184981425524076e-08 0.0 -0.9999999999999999 1.224646799147353e-16
1049737434.3585896 -0.9999999999999999 1.224646799147353e-16 1.0162387591122206e-08 0.0 1.0162387591122206e-08 0.0 -0.9999999999999999 1.224646799147353e-16
1049824956.2390598 -0.9999999999999999 1.224646799147353e-16 1.0139855403517553e-08 0.0 1.0139855403517553e-08 0.0 -0.9999999999999999 1.224646799147353e-16
1049912478.11953 -0.9999999999999999 1.224646799147353e-16 1.0117384663588945e-08 0.0 1.0117384663588945e-08 0.0 -0.9999999999999999 1.224646799147353e-16
1050000000.0 -0.9999999999999999 1.224646799147353e-16 1.0094975172956871e-08 0.0 1.0094975172956871e-08 0.0 -0.9999999999999999 1.224646799147353e-16
