! Hairpin BPF N=5 fc=868MHz BW=10MHz FR4 — Stage 2 circuit model
! Generated by stage2_final.py
# Hz S RI R 50
7.000000e+08   0.99634134 -0.04532901  -0.00000000 -0.00000000  -0.00000000 -0.00000000   0.99634134 -0.04532901
7.001250e+08   0.99633552 -0.04537243  -0.00000000 -0.00000000  -0.00000000 -0.00000000   0.99633552 -0.04537243
7.002500e+08   0.99632968 -0.04541590  -0.00000000 -0.00000000  -0.00000000 -0.00000000   0.99632968 -0.04541590
7.003750e+08   0.99632383 -0.04545943  -0.00000000 -0.00000000  -0.00000000 -0.00000000   0.99632383 -0.04545943
7.005000e+08   0.99631796 -0.04550302  -0.00000000 -0.00000000  -0.00000000 -0.00000000   0.99631796 -0.04550302
7.006250e+08   0.99631209 -0.04554666  -0.00000000 -0.00000000  -0.00000000 -0.00000000   0.99631209 -0.04554666
7.007500e+08   0.99630619 -0.04559035  -0.00000000 -0.00000000  -0.00000000 -0.00000000   0.99630619 -0.04559035
7.008750e+08   0.99630029 -0.04563411  -0.00000000 -0.00000000  -0.00000000 -0.00000000   0.99630029 -0.04563411
7.010000e+08   0.99629437 -0.04567791  -0.00000000 -0.00000000  -0.00000000 -0.00000000   0.99629437 -0.04567791
7.011250e+08   0.99628844 -0.04572178  -0.00000000 -0.00000000  -0.00000000 -0.00000000   0.99628844 -0.04572178
7.012500e+08   0.99628250 -0.04576570  -0.00000000 -0.00000000  -0.00000000 -0.00000000   0.99628250 -0.04576570
7.013750e+08   0.99627654 -0.04580968  -0.00000000 -0.00000000  -0.00000000 -0.00000000   0.99627654 -0.04580968
7.015000e+08   0.99627057 -0.04585371  -0.00000000 -0.00000000  -0.00000000 -0.00000000   0.99627057 -0.04585371
7.016250e+08   0.99626458 -0.04589780  -0.00000000 -0.00000000  -0.00000000 -0.00000000   0.99626458 -0.04589780
7.017500e+08   0.99625858 -0.04594195  -0.00000000 -0.00000001  -0.00000000 -0.00000001   0.99625858 -0.04594195
7.018750e+08   0.99625257 -0.04598616  -0.00000000 -0.00000001  -0.00000000 -0.00000001   0.99625257 -0.04598616
7.020000e+08   0.99624654 -0.04603042  -0.00000000 -0.00000001  -0.00000000 -0.00000001   0.99624654 -0.04603042
7.021250e+08   0.99624050 -0.04607474  -0.00000000 -0.00000001  -0.00000000 -0.00000001   0.99624050 -0.04607474
7.022500e+08   0.99623444 -0.04611912  -0.00000000 -0.00000001  -0.00000000 -0.00000001   0.99623444 -0.04611912
7.023750e+08   0.99622837 -0.04616356  -0.00000000 -0.00000001  -0.00000000 -0.00000001   0.99622837 -0.04616356
7.025000e+08   0.99622229 -0.04620805  -0.00000000 -0.00000001  -0.00000000 -0.00000001   0.99622229 -0.04620805
7.026250e+08   0.99621619 -0.04625260  -0.00000000 -0.00000001  -0.00000000 -0.00000001   0.99621619 -0.04625260
7.027500e+08   0.99621008 -0.04629721  -0.00000000 -0.00000001  -0.00000000 -0.00000001   0.99621008 -0.04629721
7.028750e+08   0.99620395 -0.04634188  -0.00000000 -0.00000001  -0.00000000 -0.00000001   0.99620395 -0.04634188
7.030000e+08   0.99619781 -0.04638660  -0.00000000 -0.00000001  -0.00000000 -0.00000001   0.99619781 -0.04638660
7.031250e+08   0.99619166 -0.04643139  -0.00000000 -0.00000001  -0.00000000 -0.00000001   0.99619166 -0.04643139
7.032500e+08   0.99618549 -0.04647623  -0.00000000 -0.00000001  -0.00000000 -0.00000001   0.99618549 -0.04647623
7.033750e+08   0.99617931 -0.04652113  -0.00000000 -0.00000001  -0.00000000 -0.00000001   0.99617931 -0.04652113
7.035000e+08   0.99617311 -0.04656609  -0.00000000 -0.00000001  -0.00000000 -0.00000001   0.99617311 -0.04656609
7.036250e+08   0.99616690 -0.04661111  -0.00000000 -0.00000001  -0.00000000 -0.00000001   0.99616690 -0.04661111
7.037500e+08   0.99616068 -0.04665619  -0.00000000 -0.00000001  -0.00000000 -0.00000001   0.99616068 -0.04665619
7.038750e+08   0.99615443 -0.04670133  -0.00000000 -0.00000001  -0.00000000 -0.00000001   0.99615443 -0.04670133
7.040000e+08   0.99614818 -0.04674652  -0.00000000 -0.00000001  -0.00000000 -0.00000001   0.99614818 -0.04674652
7.041250e+08   0.99614191 -0.04679178  -0.00000000 -0.00000001  -0.00000000 -0.00000001   0.99614191 -0.04679178
7.042500e+08   0.99613563 -0.04683710  -0.00000000 -0.00000001  -0.00000000 -0.00000001   0.99613563 -0.04683710
7.043750e+08   0.99612933 -0.04688247  -0.00000000 -0.00000001  -0.00000000 -0.00000001   0.99612933 -0.04688247
7.045000e+08   0.99612301 -0.04692791  -0.00000000 -0.00000001  -0.00000000 -0.00000001   0.99612301 -0.04692791
7.046250e+08   0.99611669 -0.04697340  -0.00000000 -0.00000001  -0.00000000 -0.00000001   0.99611669 -0.04697340
7.047500e+08   0.99611034 -0.04701896  -0.00000000 -0.00000001  -0.00000000 -0.00000001   0.99611034 -0.04701896
7.048750e+08   0.99610398 -0.04706458  -0.00000000 -0.00000001  -0.00000000 -0.00000001   0.99610398 -0.04706458
7.050000e+08   0.99609761 -0.04711025  -0.00000000 -0.00000001  -0.00000000 -0.00000001   0.99609761 -0.04711025
7.051250e+08   0.99609122 -0.04715599  -0.00000000 -0.00000001  -0.00000000 -0.00000001   0.99609122 -0.04715599
7.052500e+08   0.99608482 -0.04720179  -0.00000000 -0.00000001  -0.00000000 -0.00000001   0.99608482 -0.04720179
7.053750e+08   0.99607840 -0.04724765  -0.00000000 -0.00000001  -0.00000000 -0.00000001   0.99607840 -0.04724765
7.055000e+08   0.99607197 -0.04729357  -0.00000000 -0.00000001  -0.00000000 -0.00000001   0.99607197 -0.04729357
7.056250e+08   0.99606552 -0.04733955  -0.00000000 -0.00000001  -0.00000000 -0.00000001   0.99606552 -0.04733955
7.057500e+08   0.99605906 -0.04738559  -0.00000000 -0.00000001  -0.00000000 -0.00000001   0.99605906 -0.04738559
7.058750e+08   0.99605258 -0.04743169  -0.00000000 -0.00000001  -0.00000000 -0.00000001   0.99605258 -0.04743169
7.060000e+08   0.99604609 -0.04747786  -0.00000000 -0.00000001  -0.00000000 -0.00000001   0.99604609 -0.04747786
7.061250e+08   0.99603958 -0.04752409  -0.00000000 -0.00000001  -0.00000000 -0.00000001   0.99603958 -0.04752409
7.062500e+08   0.99603305 -0.04757037  -0.00000000 -0.00000001  -0.00000000 -0.00000001   0.99603305 -0.04757037
7.063750e+08   0.99602651 -0.04761672  -0.00000000 -0.00000001  -0.00000000 -0.00000001   0.99602651 -0.04761672
7.065000e+08   0.99601996 -0.04766314  -0.00000000 -0.00000001  -0.00000000 -0.00000001   0.99601996 -0.04766314
7.066250e+08   0.99601339 -0.04770961  -0.00000000 -0.00000001  -0.00000000 -0.00000001   0.99601339 -0.04770961
7.067500e+08   0.99600680 -0.04775615  -0.00000000 -0.00000001  -0.00000000 -0.00000001   0.99600680 -0.04775615
7.068750e+08   0.99600020 -0.04780275  -0.00000000 -0.00000001  -0.00000000 -0.00000001   0.99600020 -0.04780275
7.070000e+08   0.99599358 -0.04784941  -0.00000000 -0.00000001  -0.00000000 -0.00000001   0.99599358 -0.04784941
7.071250e+08   0.99598695 -0.04789614  -0.00000000 -0.00000001  -0.00000000 -0.00000001   0.99598695 -0.04789614
7.072500e+08   0.99598030 -0.04794293  -0.00000000 -0.00000001  -0.00000000 -0.00000001   0.99598030 -0.04794293
7.073750e+08   0.99597364 -0.04798978  -0.00000000 -0.00000001  -0.00000000 -0.00000001   0.99597364 -0.04798978
7.075000e+08   0.99596695 -0.04803669  -0.00000000 -0.00000001  -0.00000000 -0.00000001   0.99596695 -0.04803669
7.076250e+08   0.99596026 -0.04808367  -0.00000000 -0.00000001  -0.00000000 -0.00000001   0.99596026 -0.04808367
7.077500e+08   0.99595355 -0.04813071  -0.00000000 -0.00000001  -0.00000000 -0.00000001   0.99595355 -0.04813071
7.078750e+08   0.99594682 -0.04817782  -0.00000000 -0.00000001  -0.00000000 -0.00000001   0.99594682 -0.04817782
7.080000e+08   0.99594007 -0.04822499  -0.00000000 -0.00000001  -0.00000000 -0.00000001   0.99594007 -0.04822499
7.081250e+08   0.99593331 -0.04827222  -0.00000000 -0.00000001  -0.00000000 -0.00000001   0.99593331 -0.04827222
7.082500e+08   0.99592654 -0.04831952  -0.00000000 -0.00000001  -0.00000000 -0.00000001   0.99592654 -0.04831952
7.083750e+08   0.99591974 -0.04836688  -0.00000000 -0.00000001  -0.00000000 -0.00000001   0.99591974 -0.04836688
7.085000e+08   0.99591293 -0.04841431  -0.00000000 -0.00000001  -0.00000000 -0.00000001   0.99591293 -0.04841431
7.086250e+08   0.99590611 -0.04846180  -0.00000000 -0.00000001  -0.00000000 -0.00000001   0.99590611 -0.04846180
7.087500e+08   0.99589927 -0.04850936  -0.00000000 -0.00000001  -0.00000000 -0.00000001   0.99589927 -0.04850936
7.088750e+08   0.99589241 -0.04855698  -0.00000000 -0.00000001  -0.00000000 -0.00000001   0.99589241 -0.04855698
7.090000e+08   0.99588553 -0.04860466  -0.00000000 -0.00000001  -0.00000000 -0.00000001   0.99588553 -0.04860466
7.091250e+08   0.99587864 -0.04865242  -0.00000000 -0.00000001  -0.00000000 -0.00000001   0.99587864 -0.04865242
7.092500e+08   0.99587173 -0.04870023  -0.00000000 -0.00000001  -0.00000000 -0.00000001   0.99587173 -0.04870023
7.093750e+08   0.99586481 -0.04874811  -0.00000000 -0.00000001  -0.00000000 -0.00000001   0.99586481 -0.04874811
7.095000e+08   0.99585787 -0.04879606  -0.00000000 -0.00000001  -0.00000000 -0.00000001   0.99585787 -0.04879606
7.096250e+08   0.99585091 -0.04884408  -0.00000000 -0.00000001  -0.00000000 -0.00000001   0.99585091 -0.04884408
7.097500e+08   0.99584394 -0.04889215  -0.00000000 -0.00000001  -0.00000000 -0.00000001   0.99584394 -0.04889215
7.098750e+08   0.99583695 -0.04894030  -0.00000000 -0.00000001  -0.00000000 -0.00000001   0.99583695 -0.04894030
7.100000e+08   0.99582994 -0.04898851  -0.00000000 -0.00000001  -0.00000000 -0.00000001   0.99582994 -0.04898851
7.101250e+08   0.99582291 -0.04903679  -0.00000000 -0.00000001  -0.00000000 -0.00000001   0.99582291 -0.04903679
7.102500e+08   0.99581587 -0.04908514  -0.00000000 -0.00000001  -0.00000000 -0.00000001   0.99581587 -0.04908514
7.103750e+08   0.99580881 -0.04913355  -0.00000000 -0.00000001  -0.00000000 -0.00000001   0.99580881 -0.04913355
7.105000e+08   0.99580173 -0.04918203  -0.00000000 -0.00000001  -0.00000000 -0.00000001   0.99580173 -0.04918203
7.106250e+08   0.99579464 -0.04923057  -0.00000000 -0.00000001  -0.00000000 -0.00000001   0.99579464 -0.04923057
7.107500e+08   0.99578753 -0.04927918  -0.00000000 -0.00000001  -0.00000000 -0.00000001   0.99578753 -0.04927918
7.108750e+08   0.99578040 -0.04932786  -0.00000000 -0.00000001  -0.00000000 -0.00000001   0.99578040 -0.04932786
7.110000e+08   0.99577326 -0.04937661  -0.00000000 -0.00000001  -0.00000000 -0.00000001   0.99577326 -0.04937661
7.111250e+08   0.99576610 -0.04942543  -0.00000000 -0.00000001  -0.00000000 -0.00000001   0.99576610 -0.04942543
7.112500e+08   0.99575892 -0.04947431  -0.00000000 -0.00000001  -0.00000000 -0.00000001   0.99575892 -0.04947431
7.113750e+08   0.99575172 -0.04952326  -0.00000000 -0.00000001  -0.00000000 -0.00000001   0.99575172 -0.04952326
7.115000e+08   0.99574450 -0.04957228  -0.00000000 -0.00000001  -0.00000000 -0.00000001   0.99574450 -0.04957228
7.116250e+08   0.99573727 -0.04962137  -0.00000000 -0.00000001  -0.00000000 -0.00000001   0.99573727 -0.04962137
7.117500e+08   0.99573002 -0.04967053  -0.00000000 -0.00000001  -0.00000000 -0.00000001   0.99573002 -0.04967053
7.118750e+08   0.99572275 -0.04971975  -0.00000000 -0.00000001  -0.00000000 -0.00000001   0.99572275 -0.04971975
7.120000e+08   0.99571547 -0.04976905  -0.00000000 -0.00000001  -0.00000000 -0.00000001   0.99571547 -0.04976905
7.121250e+08   0.99570816 -0.04981841  -0.00000000 -0.00000001  -0.00000000 -0.00000001   0.99570816 -0.04981841
7.122500e+08   0.99570084 -0.04986784  -0.00000000 -0.00000001  -0.00000000 -0.00000001   0.99570084 -0.04986784
7.123750e+08   0.99569350 -0.04991734  -0.00000000 -0.00000001  -0.00000000 -0.00000001   0.99569350 -0.04991734
7.125000e+08   0.99568615 -0.04996691  -0.00000000 -0.00000001  -0.00000000 -0.00000001   0.99568615 -0.04996691
7.126250e+08   0.99567877 -0.05001655  -0.00000000 -0.00000001  -0.00000000 -0.00000001   0.99567877 -0.05001655
7.127500e+08   0.99567138 -0.05006626  -0.00000000 -0.00000001  -0.00000000 -0.00000001   0.99567138 -0.05006626
7.128750e+08   0.99566397 -0.05011604  -0.00000000 -0.00000001  -0.00000000 -0.00000001   0.99566397 -0.05011604
7.130000e+08   0.99565654 -0.05016589  -0.00000000 -0.00000001  -0.00000000 -0.00000001   0.99565654 -0.05016589
7.131250e+08   0.99564909 -0.05021582  -0.00000000 -0.00000001  -0.00000000 -0.00000001   0.99564909 -0.05021582
7.132500e+08   0.99564162 -0.05026581  -0.00000000 -0.00000001  -0.00000000 -0.00000001   0.99564162 -0.05026581
7.133750e+08   0.99563414 -0.05031587  -0.00000000 -0.00000001  -0.00000000 -0.00000001   0.99563414 -0.05031587
7.135000e+08   0.99562663 -0.05036600  -0.00000000 -0.00000001  -0.00000000 -0.00000001   0.99562663 -0.05036600
7.136250e+08   0.99561911 -0.05041620  -0.00000000 -0.00000001  -0.00000000 -0.00000001   0.99561911 -0.05041620
7.137500e+08   0.99561157 -0.05046648  -0.00000000 -0.00000001  -0.00000000 -0.00000001   0.99561157 -0.05046648
7.138750e+08   0.99560401 -0.05051683  -0.00000000 -0.00000001  -0.00000000 -0.00000001   0.99560401 -0.05051683
7.140000e+08   0.99559644 -0.05056724  -0.00000000 -0.00000001  -0.00000000 -0.00000001   0.99559644 -0.05056724
7.141250e+08   0.99558884 -0.05061773  -0.00000000 -0.00000001  -0.00000000 -0.00000001   0.99558884 -0.05061773
7.142500e+08   0.99558123 -0.05066829  -0.00000000 -0.00000001  -0.00000000 -0.00000001   0.99558123 -0.05066829
7.143750e+08   0.99557359 -0.05071893  -0.00000000 -0.00000001  -0.00000000 -0.00000001   0.99557359 -0.05071893
7.145000e+08   0.99556594 -0.05076963  -0.00000000 -0.00000001  -0.00000000 -0.00000001   0.99556594 -0.05076963
7.146250e+08   0.99555827 -0.05082041  -0.00000000 -0.00000001  -0.00000000 -0.00000001   0.99555827 -0.05082041
7.147500e+08   0.99555058 -0.05087126  -0.00000000 -0.00000001  -0.00000000 -0.00000001   0.99555058 -0.05087126
7.148750e+08   0.99554287 -0.05092218  -0.00000000 -0.00000001  -0.00000000 -0.00000001   0.99554287 -0.05092218
7.150000e+08   0.99553514 -0.05097318  -0.00000000 -0.00000001  -0.00000000 -0.00000001   0.99553514 -0.05097318
7.151250e+08   0.99552739 -0.05102425  -0.00000000 -0.00000001  -0.00000000 -0.00000001   0.99552739 -0.05102425
7.152500e+08   0.99551962 -0.05107539  -0.00000000 -0.00000001  -0.00000000 -0.00000001   0.99551962 -0.05107539
7.153750e+08   0.99551183 -0.05112661  -0.00000000 -0.00000001  -0.00000000 -0.00000001   0.99551183 -0.05112661
7.155000e+08   0.99550403 -0.05117790  -0.00000000 -0.00000001  -0.00000000 -0.00000001   0.99550403 -0.05117790
7.156250e+08   0.99549620 -0.05122926  -0.00000000 -0.00000001  -0.00000000 -0.00000001   0.99549620 -0.05122926
7.157500e+08   0.99548835 -0.05128070  -0.00000000 -0.00000001  -0.00000000 -0.00000001   0.99548835 -0.05128070
7.158750e+08   0.99548049 -0.05133221  -0.00000000 -0.00000001  -0.00000000 -0.00000001   0.99548049 -0.05133221
7.160000e+08   0.99547260 -0.05138379  -0.00000000 -0.00000001  -0.00000000 -0.00000001   0.99547260 -0.05138379
7.161250e+08   0.99546470 -0.05143545  -0.00000000 -0.00000001  -0.00000000 -0.00000001   0.99546470 -0.05143545
7.162500e+08   0.99545677 -0.05148719  -0.00000000 -0.00000001  -0.00000000 -0.00000001   0.99545677 -0.05148719
7.163750e+08   0.99544883 -0.05153900  -0.00000000 -0.00000001  -0.00000000 -0.00000001   0.99544883 -0.05153900
7.165000e+08   0.99544087 -0.05159088  -0.00000000 -0.00000001  -0.00000000 -0.00000001   0.99544087 -0.05159088
7.166250e+08   0.99543288 -0.05164284  -0.00000000 -0.00000001  -0.00000000 -0.00000001   0.99543288 -0.05164284
7.167500e+08   0.99542488 -0.05169487  -0.00000000 -0.00000001  -0.00000000 -0.00000001   0.99542488 -0.05169487
7.168750e+08   0.99541685 -0.05174699  -0.00000000 -0.00000001  -0.00000000 -0.00000001   0.99541685 -0.05174699
7.170000e+08   0.99540881 -0.05179917  -0.00000000 -0.00000001  -0.00000000 -0.00000001   0.99540881 -0.05179917
7.171250e+08   0.99540074 -0.05185143  -0.00000000 -0.00000001  -0.00000000 -0.00000001   0.99540074 -0.05185143
7.172500e+08   0.99539266 -0.05190377  -0.00000000 -0.00000001  -0.00000000 -0.00000001   0.99539266 -0.05190377
7.173750e+08   0.99538455 -0.05195619  -0.00000000 -0.00000001  -0.00000000 -0.00000001   0.99538455 -0.05195619
7.175000e+08   0.99537642 -0.05200868  -0.00000000 -0.00000001  -0.00000000 -0.00000001   0.99537642 -0.05200868
7.176250e+08   0.99536828 -0.05206125  -0.00000000 -0.00000001  -0.00000000 -0.00000001   0.99536828 -0.05206125
7.177500e+08   0.99536011 -0.05211389  -0.00000000 -0.00000001  -0.00000000 -0.00000001   0.99536011 -0.05211389
7.178750e+08   0.99535192 -0.05216661  -0.00000000 -0.00000001  -0.00000000 -0.00000001   0.99535192 -0.05216661
7.180000e+08   0.99534371 -0.05221941  -0.00000000 -0.00000001  -0.00000000 -0.00000001   0.99534371 -0.05221941
7.181250e+08   0.99533548 -0.05227229  -0.00000000 -0.00000001  -0.00000000 -0.00000001   0.99533548 -0.05227229
7.182500e+08   0.99532723 -0.05232524  -0.00000000 -0.00000001  -0.00000000 -0.00000001   0.99532723 -0.05232524
7.183750e+08   0.99531896 -0.05237827  -0.00000000 -0.00000001  -0.00000000 -0.00000001   0.99531896 -0.05237827
7.185000e+08   0.99531067 -0.05243138  -0.00000000 -0.00000001  -0.00000000 -0.00000001   0.99531067 -0.05243138
7.186250e+08   0.99530235 -0.05248457  -0.00000000 -0.00000001  -0.00000000 -0.00000001   0.99530235 -0.05248457
7.187500e+08   0.99529402 -0.05253784  -0.00000000 -0.00000001  -0.00000000 -0.00000001   0.99529402 -0.05253784
7.188750e+08   0.99528566 -0.05259119  -0.00000000 -0.00000001  -0.00000000 -0.00000001   0.99528566 -0.05259119
7.190000e+08   0.99527728 -0.05264461  -0.00000000 -0.00000001  -0.00000000 -0.00000001   0.99527728 -0.05264461
7.191250e+08   0.99526889 -0.05269811  -0.00000000 -0.00000001  -0.00000000 -0.00000001   0.99526889 -0.05269811
7.192500e+08   0.99526047 -0.05275169  -0.00000000 -0.00000001  -0.00000000 -0.00000001   0.99526047 -0.05275169
7.193750e+08   0.99525202 -0.05280536  -0.00000000 -0.00000001  -0.00000000 -0.00000001   0.99525202 -0.05280536
7.195000e+08   0.99524356 -0.05285910  -0.00000000 -0.00000001  -0.00000000 -0.00000001   0.99524356 -0.05285910
7.196250e+08   0.99523507 -0.05291292  -0.00000000 -0.00000001  -0.00000000 -0.00000001   0.99523507 -0.05291292
7.197500e+08   0.99522657 -0.05296682  -0.00000000 -0.00000001  -0.00000000 -0.00000001   0.99522657 -0.05296682
7.198750e+08   0.99521804 -0.05302080  -0.00000000 -0.00000001  -0.00000000 -0.00000001   0.99521804 -0.05302080
7.200000e+08   0.99520949 -0.05307486  -0.00000000 -0.00000001  -0.00000000 -0.00000001   0.99520949 -0.05307486
7.201250e+08   0.99520091 -0.05312900  -0.00000000 -0.00000001  -0.00000000 -0.00000001   0.99520091 -0.05312900
7.202500e+08   0.99519232 -0.05318323  -0.00000000 -0.00000001  -0.00000000 -0.00000001   0.99519232 -0.05318323
7.203750e+08   0.99518370 -0.05323753  -0.00000000 -0.00000001  -0.00000000 -0.00000001   0.99518370 -0.05323753
7.205000e+08   0.99517506 -0.05329192  -0.00000000 -0.00000001  -0.00000000 -0.00000001   0.99517506 -0.05329192
7.206250e+08   0.99516640 -0.05334638  -0.00000000 -0.00000001  -0.00000000 -0.00000001   0.99516640 -0.05334638
7.207500e+08   0.99515772 -0.05340093  -0.00000000 -0.00000001  -0.00000000 -0.00000001   0.99515772 -0.05340093
7.208750e+08   0.99514901 -0.05345556  -0.00000000 -0.00000001  -0.00000000 -0.00000001   0.99514901 -0.05345556
7.210000e+08   0.99514028 -0.05351027  -0.00000000 -0.00000001  -0.00000000 -0.00000001   0.99514028 -0.05351027
7.211250e+08   0.99513153 -0.05356506  -0.00000000 -0.00000001  -0.00000000 -0.00000001   0.99513153 -0.05356506
7.212500e+08   0.99512276 -0.05361994  -0.00000000 -0.00000001  -0.00000000 -0.00000001   0.99512276 -0.05361994
7.213750e+08   0.99511396 -0.05367490  -0.00000000 -0.00000001  -0.00000000 -0.00000001   0.99511396 -0.05367490
7.215000e+08   0.99510514 -0.05372994  -0.00000000 -0.00000001  -0.00000000 -0.00000001   0.99510514 -0.05372994
7.216250e+08   0.99509630 -0.05378507  -0.00000000 -0.00000001  -0.00000000 -0.00000001   0.99509630 -0.05378507
7.217500e+08   0.99508743 -0.05384027  -0.00000000 -0.00000001  -0.00000000 -0.00000001   0.99508743 -0.05384027
7.218750e+08   0.99507855 -0.05389557  -0.00000000 -0.00000001  -0.00000000 -0.00000001   0.99507855 -0.05389557
7.220000e+08   0.99506963 -0.05395094  -0.00000000 -0.00000001  -0.00000000 -0.00000001   0.99506963 -0.05395094
7.221250e+08   0.99506070 -0.05400640  -0.00000000 -0.00000001  -0.00000000 -0.00000001   0.99506070 -0.05400640
7.222500e+08   0.99505174 -0.05406194  -0.00000000 -0.00000001  -0.00000000 -0.00000001   0.99505174 -0.05406194
7.223750e+08   0.99504276 -0.05411757  -0.00000000 -0.00000001  -0.00000000 -0.00000001   0.99504276 -0.05411757
7.225000e+08   0.99503376 -0.05417328  -0.00000000 -0.00000001  -0.00000000 -0.00000001   0.99503376 -0.05417328
7.226250e+08   0.99502473 -0.05422908  -0.00000000 -0.00000001  -0.00000000 -0.00000001   0.99502473 -0.05422908
7.227500e+08   0.99501568 -0.05428496  -0.00000000 -0.00000001  -0.00000000 -0.00000001   0.99501568 -0.05428496
7.228750e+08   0.99500660 -0.05434092  -0.00000000 -0.00000001  -0.00000000 -0.00000001   0.99500660 -0.05434092
7.230000e+08   0.99499750 -0.05439698  -0.00000000 -0.00000001  -0.00000000 -0.00000001   0.99499750 -0.05439698
7.231250e+08   0.99498838 -0.05445311  -0.00000000 -0.00000001  -0.00000000 -0.00000001   0.99498838 -0.05445311
7.232500e+08   0.99497923 -0.05450934  -0.00000000 -0.00000001  -0.00000000 -0.00000001   0.99497923 -0.05450934
7.233750e+08   0.99497006 -0.05456564  -0.00000000 -0.00000001  -0.00000000 -0.00000001   0.99497006 -0.05456564
7.235000e+08   0.99496086 -0.05462204  -0.00000000 -0.00000001  -0.00000000 -0.00000001   0.99496086 -0.05462204
7.236250e+08   0.99495164 -0.05467852  -0.00000000 -0.00000001  -0.00000000 -0.00000001   0.99495164 -0.05467852
7.237500e+08   0.99494240 -0.05473509  -0.00000000 -0.00000001  -0.00000000 -0.00000001   0.99494240 -0.05473509
7.238750e+08   0.99493313 -0.05479175  -0.00000000 -0.00000001  -0.00000000 -0.00000001   0.99493313 -0.05479175
7.240000e+08   0.99492384 -0.05484849  -0.00000000 -0.00000001  -0.00000000 -0.00000001   0.99492384 -0.05484849
7.241250e+08   0.99491452 -0.05490532  -0.00000000 -0.00000001  -0.00000000 -0.00000001   0.99491452 -0.05490532
7.242500e+08   0.99490518 -0.05496223  -0.00000000 -0.00000001  -0.00000000 -0.00000001   0.99490518 -0.05496223
7.243750e+08   0.99489582 -0.05501924  -0.00000000 -0.00000001  -0.00000000 -0.00000001   0.99489582 -0.05501924
7.245000e+08   0.99488642 -0.05507633  -0.00000000 -0.00000001  -0.00000000 -0.00000001   0.99488642 -0.05507633
7.246250e+08   0.99487701 -0.05513351  -0.00000000 -0.00000001  -0.00000000 -0.00000001   0.99487701 -0.05513351
7.247500e+08   0.99486757 -0.05519078  -0.00000000 -0.00000001  -0.00000000 -0.00000001   0.99486757 -0.05519078
7.248750e+08   0.99485810 -0.05524814  -0.00000000 -0.00000001  -0.00000000 -0.00000001   0.99485810 -0.05524814
7.250000e+08   0.99484861 -0.05530559  -0.00000001 -0.00000001  -0.00000001 -0.00000001   0.99484861 -0.05530559
7.251250e+08   0.99483909 -0.05536312  -0.00000001 -0.00000001  -0.00000001 -0.00000001   0.99483909 -0.05536312
7.252500e+08   0.99482955 -0.05542075  -0.00000001 -0.00000001  -0.00000001 -0.00000001   0.99482955 -0.05542075
7.253750e+08   0.99481999 -0.05547846  -0.00000001 -0.00000001  -0.00000001 -0.00000001   0.99481999 -0.05547846
7.255000e+08   0.99481039 -0.05553627  -0.00000001 -0.00000001  -0.00000001 -0.00000001   0.99481039 -0.05553627
7.256250e+08   0.99480078 -0.05559416  -0.00000001 -0.00000001  -0.00000001 -0.00000001   0.99480078 -0.05559416
7.257500e+08   0.99479113 -0.05565215  -0.00000001 -0.00000001  -0.00000001 -0.00000001   0.99479113 -0.05565215
7.258750e+08   0.99478146 -0.05571022  -0.00000001 -0.00000001  -0.00000001 -0.00000001   0.99478146 -0.05571022
7.260000e+08   0.99477177 -0.05576839  -0.00000001 -0.00000001  -0.00000001 -0.00000001   0.99477177 -0.05576839
7.261250e+08   0.99476205 -0.05582665  -0.00000001 -0.00000001  -0.00000001 -0.00000001   0.99476205 -0.05582665
7.262500e+08   0.99475230 -0.05588500  -0.00000001 -0.00000001  -0.00000001 -0.00000001   0.99475230 -0.05588500
7.263750e+08   0.99474253 -0.05594344  -0.00000001 -0.00000001  -0.00000001 -0.00000001   0.99474253 -0.05594344
7.265000e+08   0.99473273 -0.05600197  -0.00000001 -0.00000001  -0.00000001 -0.00000001   0.99473273 -0.05600197
7.266250e+08   0.99472290 -0.05606059  -0.00000001 -0.00000001  -0.00000001 -0.00000001   0.99472290 -0.05606059
7.267500e+08   0.99471305 -0.05611931  -0.00000001 -0.00000001  -0.00000001 -0.00000001   0.99471305 -0.05611931
7.268750e+08   0.99470317 -0.05617811  -0.00000001 -0.00000001  -0.00000001 -0.00000001   0.99470317 -0.05617811
7.270000e+08   0.99469327 -0.05623701  -0.00000001 -0.00000001  -0.00000001 -0.00000001   0.99469327 -0.05623701
7.271250e+08   0.99468333 -0.05629601  -0.00000001 -0.00000001  -0.00000001 -0.00000001   0.99468333 -0.05629601
7.272500e+08   0.99467338 -0.05635509  -0.00000001 -0.00000001  -0.00000001 -0.00000001   0.99467338 -0.05635509
7.273750e+08   0.99466339 -0.05641427  -0.00000001 -0.00000001  -0.00000001 -0.00000001   0.99466339 -0.05641427
7.275000e+08   0.99465338 -0.05647355  -0.00000001 -0.00000001  -0.00000001 -0.00000001   0.99465338 -0.05647355
7.276250e+08   0.99464334 -0.05653292  -0.00000001 -0.00000001  -0.00000001 -0.00000001   0.99464334 -0.05653292
7.277500e+08   0.99463327 -0.05659238  -0.00000001 -0.00000001  -0.00000001 -0.00000001   0.99463327 -0.05659238
7.278750e+08   0.99462318 -0.05665193  -0.00000001 -0.00000001  -0.00000001 -0.00000001   0.99462318 -0.05665193
7.280000e+08   0.99461306 -0.05671158  -0.00000001 -0.00000001  -0.00000001 -0.00000001   0.99461306 -0.05671158
7.281250e+08   0.99460291 -0.05677133  -0.00000001 -0.00000001  -0.00000001 -0.00000001   0.99460291 -0.05677133
7.282500e+08   0.99459273 -0.05683117  -0.00000001 -0.00000001  -0.00000001 -0.00000001   0.99459273 -0.05683117
7.283750e+08   0.99458253 -0.05689110  -0.00000001 -0.00000001  -0.00000001 -0.00000001   0.99458253 -0.05689110
7.285000e+08   0.99457230 -0.05695113  -0.00000001 -0.00000001  -0.00000001 -0.00000001   0.99457230 -0.05695113
7.286250e+08   0.99456204 -0.05701126  -0.00000001 -0.00000001  -0.00000001 -0.00000001   0.99456204 -0.05701126
7.287500e+08   0.99455175 -0.05707148  -0.00000001 -0.00000001  -0.00000001 -0.00000001   0.99455175 -0.05707148
7.288750e+08   0.99454144 -0.05713180  -0.00000001 -0.00000001  -0.00000001 -0.00000001   0.99454144 -0.05713180
7.290000e+08   0.99453109 -0.05719222  -0.00000001 -0.00000001  -0.00000001 -0.00000001   0.99453109 -0.05719222
7.291250e+08   0.99452072 -0.05725273  -0.00000001 -0.00000001  -0.00000001 -0.00000001   0.99452072 -0.05725273
7.292500e+08   0.99451032 -0.05731334  -0.00000001 -0.00000001  -0.00000001 -0.00000001   0.99451032 -0.05731334
7.293750e+08   0.99449989 -0.05737405  -0.00000001 -0.00000002  -0.00000001 -0.00000002   0.99449989 -0.05737405
7.295000e+08   0.99448944 -0.05743485  -0.00000001 -0.00000002  -0.00000001 -0.00000002   0.99448944 -0.05743485
7.296250e+08   0.99447895 -0.05749575  -0.00000001 -0.00000002  -0.00000001 -0.00000002   0.99447895 -0.05749575
7.297500e+08   0.99446844 -0.05755676  -0.00000001 -0.00000002  -0.00000001 -0.00000002   0.99446844 -0.05755676
7.298750e+08   0.99445790 -0.05761785  -0.00000001 -0.00000002  -0.00000001 -0.00000002   0.99445790 -0.05761785
7.300000e+08   0.99444732 -0.05767905  -0.00000001 -0.00000002  -0.00000001 -0.00000002   0.99444732 -0.05767905
7.301250e+08   0.99443672 -0.05774035  -0.00000001 -0.00000002  -0.00000001 -0.00000002   0.99443672 -0.05774035
7.302500e+08   0.99442609 -0.05780174  -0.00000001 -0.00000002  -0.00000001 -0.00000002   0.99442609 -0.05780174
7.303750e+08   0.99441543 -0.05786324  -0.00000001 -0.00000002  -0.00000001 -0.00000002   0.99441543 -0.05786324
7.305000e+08   0.99440474 -0.05792483  -0.00000001 -0.00000002  -0.00000001 -0.00000002   0.99440474 -0.05792483
7.306250e+08   0.99439403 -0.05798653  -0.00000001 -0.00000002  -0.00000001 -0.00000002   0.99439403 -0.05798653
7.307500e+08   0.99438328 -0.05804832  -0.00000001 -0.00000002  -0.00000001 -0.00000002   0.99438328 -0.05804832
7.308750e+08   0.99437250 -0.05811022  -0.00000001 -0.00000002  -0.00000001 -0.00000002   0.99437250 -0.05811022
7.310000e+08   0.99436169 -0.05817221  -0.00000001 -0.00000002  -0.00000001 -0.00000002   0.99436169 -0.05817221
7.311250e+08   0.99435086 -0.05823431  -0.00000001 -0.00000002  -0.00000001 -0.00000002   0.99435086 -0.05823431
7.312500e+08   0.99433999 -0.05829651  -0.00000001 -0.00000002  -0.00000001 -0.00000002   0.99433999 -0.05829651
7.313750e+08   0.99432909 -0.05835881  -0.00000001 -0.00000002  -0.00000001 -0.00000002   0.99432909 -0.05835881
7.315000e+08   0.99431816 -0.05842121  -0.00000001 -0.00000002  -0.00000001 -0.00000002   0.99431816 -0.05842121
7.316250e+08   0.99430721 -0.05848371  -0.00000001 -0.00000002  -0.00000001 -0.00000002   0.99430721 -0.05848371
7.317500e+08   0.99429622 -0.05854632  -0.00000001 -0.00000002  -0.00000001 -0.00000002   0.99429622 -0.05854632
7.318750e+08   0.99428520 -0.05860903  -0.00000001 -0.00000002  -0.00000001 -0.00000002   0.99428520 -0.05860903
7.320000e+08   0.99427415 -0.05867184  -0.00000001 -0.00000002  -0.00000001 -0.00000002   0.99427415 -0.05867184
7.321250e+08   0.99426307 -0.05873475  -0.00000001 -0.00000002  -0.00000001 -0.00000002   0.99426307 -0.05873475
7.322500e+08   0.99425196 -0.05879777  -0.00000001 -0.00000002  -0.00000001 -0.00000002   0.99425196 -0.05879777
7.323750e+08   0.99424082 -0.05886089  -0.00000001 -0.00000002  -0.00000001 -0.00000002   0.99424082 -0.05886089
7.325000e+08   0.99422964 -0.05892412  -0.00000001 -0.00000002  -0.00000001 -0.00000002   0.99422964 -0.05892412
7.326250e+08   0.99421844 -0.05898745  -0.00000001 -0.00000002  -0.00000001 -0.00000002   0.99421844 -0.05898745
7.327500e+08   0.99420720 -0.05905088  -0.00000001 -0.00000002  -0.00000001 -0.00000002   0.99420720 -0.05905088
7.328750e+08   0.99419594 -0.05911442  -0.00000001 -0.00000002  -0.00000001 -0.00000002   0.99419594 -0.05911442
7.330000e+08   0.99418464 -0.05917807  -0.00000001 -0.00000002  -0.00000001 -0.00000002   0.99418464 -0.05917807
7.331250e+08   0.99417331 -0.05924182  -0.00000001 -0.00000002  -0.00000001 -0.00000002   0.99417331 -0.05924182
7.332500e+08   0.99416194 -0.05930567  -0.00000001 -0.00000002  -0.00000001 -0.00000002   0.99416194 -0.05930567
7.333750e+08   0.99415055 -0.05936964  -0.00000001 -0.00000002  -0.00000001 -0.00000002   0.99415055 -0.05936964
7.335000e+08   0.99413912 -0.05943370  -0.00000001 -0.00000002  -0.00000001 -0.00000002   0.99413912 -0.05943370
7.336250e+08   0.99412766 -0.05949788  -0.00000001 -0.00000002  -0.00000001 -0.00000002   0.99412766 -0.05949788
7.337500e+08   0.99411617 -0.05956216  -0.00000001 -0.00000002  -0.00000001 -0.00000002   0.99411617 -0.05956216
7.338750e+08   0.99410465 -0.05962655  -0.00000001 -0.00000002  -0.00000001 -0.00000002   0.99410465 -0.05962655
7.340000e+08   0.99409309 -0.05969104  -0.00000001 -0.00000002  -0.00000001 -0.00000002   0.99409309 -0.05969104
7.341250e+08   0.99408150 -0.05975565  -0.00000001 -0.00000002  -0.00000001 -0.00000002   0.99408150 -0.05975565
7.342500e+08   0.99406988 -0.05982036  -0.00000001 -0.00000002  -0.00000001 -0.00000002   0.99406988 -0.05982036
7.343750e+08   0.99405823 -0.05988518  -0.00000001 -0.00000002  -0.00000001 -0.00000002   0.99405823 -0.05988518
7.345000e+08   0.99404654 -0.05995011  -0.00000001 -0.00000002  -0.00000001 -0.00000002   0.99404654 -0.05995011
7.346250e+08   0.99403482 -0.06001515  -0.00000001 -0.00000002  -0.00000001 -0.00000002   0.99403482 -0.06001515
7.347500e+08   0.99402307 -0.06008029  -0.00000001 -0.00000002  -0.00000001 -0.00000002   0.99402307 -0.06008029
7.348750e+08   0.99401128 -0.06014555  -0.00000001 -0.00000002  -0.00000001 -0.00000002   0.99401128 -0.06014555
7.350000e+08   0.99399946 -0.06021092  -0.00000001 -0.00000002  -0.00000001 -0.00000002   0.99399946 -0.06021092
7.351250e+08   0.99398760 -0.06027639  -0.00000001 -0.00000002  -0.00000001 -0.00000002   0.99398760 -0.06027639
7.352500e+08   0.99397572 -0.06034198  -0.00000001 -0.00000002  -0.00000001 -0.00000002   0.99397572 -0.06034198
7.353750e+08   0.99396379 -0.06040768  -0.00000001 -0.00000002  -0.00000001 -0.00000002   0.99396379 -0.06040768
7.355000e+08   0.99395184 -0.06047348  -0.00000001 -0.00000002  -0.00000001 -0.00000002   0.99395184 -0.06047348
7.356250e+08   0.99393985 -0.06053940  -0.00000001 -0.00000002  -0.00000001 -0.00000002   0.99393985 -0.06053940
7.357500e+08   0.99392782 -0.06060544  -0.00000001 -0.00000002  -0.00000001 -0.00000002   0.99392782 -0.06060544
7.358750e+08   0.99391577 -0.06067158  -0.00000001 -0.00000002  -0.00000001 -0.00000002   0.99391577 -0.06067158
7.360000e+08   0.99390367 -0.06073783  -0.00000001 -0.00000002  -0.00000001 -0.00000002   0.99390367 -0.06073783
7.361250e+08   0.99389154 -0.06080420  -0.00000001 -0.00000002  -0.00000001 -0.00000002   0.99389154 -0.06080420
7.362500e+08   0.99387938 -0.06087068  -0.00000001 -0.00000002  -0.00000001 -0.00000002   0.99387938 -0.06087068
7.363750e+08   0.99386718 -0.06093728  -0.00000001 -0.00000002  -0.00000001 -0.00000002   0.99386718 -0.06093728
7.365000e+08   0.99385495 -0.06100398  -0.00000001 -0.00000002  -0.00000001 -0.00000002   0.99385495 -0.06100398
7.366250e+08   0.99384268 -0.06107081  -0.00000001 -0.00000002  -0.00000001 -0.00000002   0.99384268 -0.06107081
7.367500e+08   0.99383038 -0.06113774  -0.00000001 -0.00000002  -0.00000001 -0.00000002   0.99383038 -0.06113774
7.368750e+08   0.99381804 -0.06120479  -0.00000001 -0.00000002  -0.00000001 -0.00000002   0.99381804 -0.06120479
7.370000e+08   0.99380567 -0.06127196  -0.00000001 -0.00000002  -0.00000001 -0.00000002   0.99380567 -0.06127196
7.371250e+08   0.99379326 -0.06133923  -0.00000001 -0.00000002  -0.00000001 -0.00000002   0.99379326 -0.06133923
7.372500e+08   0.99378081 -0.06140663  -0.00000001 -0.00000002  -0.00000001 -0.00000002   0.99378081 -0.06140663
7.373750e+08   0.99376833 -0.06147414  -0.00000001 -0.00000002  -0.00000001 -0.00000002   0.99376833 -0.06147414
7.375000e+08   0.99375581 -0.06154177  -0.00000001 -0.00000002  -0.00000001 -0.00000002   0.99375581 -0.06154177
7.376250e+08   0.99374325 -0.06160951  -0.00000001 -0.00000002  -0.00000001 -0.00000002   0.99374325 -0.06160951
7.377500e+08   0.99373066 -0.06167737  -0.00000001 -0.00000002  -0.00000001 -0.00000002   0.99373066 -0.06167737
7.378750e+08   0.99371804 -0.06174535  -0.00000001 -0.00000002  -0.00000001 -0.00000002   0.99371804 -0.06174535
7.380000e+08   0.99370537 -0.06181344  -0.00000001 -0.00000002  -0.00000001 -0.00000002   0.99370537 -0.06181344
7.381250e+08   0.99369267 -0.06188165  -0.00000001 -0.00000002  -0.00000001 -0.00000002   0.99369267 -0.06188165
7.382500e+08   0.99367993 -0.06194998  -0.00000001 -0.00000002  -0.00000001 -0.00000002   0.99367993 -0.06194998
7.383750e+08   0.99366716 -0.06201843  -0.00000001 -0.00000002  -0.00000001 -0.00000002   0.99366716 -0.06201843
7.385000e+08   0.99365435 -0.06208700  -0.00000001 -0.00000002  -0.00000001 -0.00000002   0.99365435 -0.06208700
7.386250e+08   0.99364150 -0.06215568  -0.00000001 -0.00000002  -0.00000001 -0.00000002   0.99364150 -0.06215568
7.387500e+08   0.99362861 -0.06222449  -0.00000001 -0.00000002  -0.00000001 -0.00000002   0.99362861 -0.06222449
7.388750e+08   0.99361568 -0.06229341  -0.00000001 -0.00000002  -0.00000001 -0.00000002   0.99361568 -0.06229341
7.390000e+08   0.99360272 -0.06236245  -0.00000001 -0.00000002  -0.00000001 -0.00000002   0.99360272 -0.06236245
7.391250e+08   0.99358972 -0.06243162  -0.00000001 -0.00000002  -0.00000001 -0.00000002   0.99358972 -0.06243162
7.392500e+08   0.99357668 -0.06250090  -0.00000001 -0.00000002  -0.00000001 -0.00000002   0.99357668 -0.06250090
7.393750e+08   0.99356360 -0.06257031  -0.00000001 -0.00000002  -0.00000001 -0.00000002   0.99356360 -0.06257031
7.395000e+08   0.99355049 -0.06263984  -0.00000001 -0.00000002  -0.00000001 -0.00000002   0.99355049 -0.06263984
7.396250e+08   0.99353733 -0.06270949  -0.00000001 -0.00000002  -0.00000001 -0.00000002   0.99353733 -0.06270949
7.397500e+08   0.99352414 -0.06277926  -0.00000001 -0.00000002  -0.00000001 -0.00000002   0.99352414 -0.06277926
7.398750e+08   0.99351091 -0.06284915  -0.00000001 -0.00000002  -0.00000001 -0.00000002   0.99351091 -0.06284915
7.400000e+08   0.99349764 -0.06291917  -0.00000001 -0.00000002  -0.00000001 -0.00000002   0.99349764 -0.06291917
7.401250e+08   0.99348433 -0.06298931  -0.00000001 -0.00000002  -0.00000001 -0.00000002   0.99348433 -0.06298931
7.402500e+08   0.99347098 -0.06305957  -0.00000001 -0.00000002  -0.00000001 -0.00000002   0.99347098 -0.06305957
7.403750e+08   0.99345759 -0.06312996  -0.00000001 -0.00000002  -0.00000001 -0.00000002   0.99345759 -0.06312996
7.405000e+08   0.99344416 -0.06320047  -0.00000001 -0.00000002  -0.00000001 -0.00000002   0.99344416 -0.06320047
7.406250e+08   0.99343069 -0.06327110  -0.00000001 -0.00000002  -0.00000001 -0.00000002   0.99343069 -0.06327110
7.407500e+08   0.99341718 -0.06334186  -0.00000001 -0.00000002  -0.00000001 -0.00000002   0.99341718 -0.06334186
7.408750e+08   0.99340363 -0.06341275  -0.00000001 -0.00000002  -0.00000001 -0.00000002   0.99340363 -0.06341275
7.410000e+08   0.99339004 -0.06348376  -0.00000001 -0.00000002  -0.00000001 -0.00000002   0.99339004 -0.06348376
7.411250e+08   0.99337641 -0.06355489  -0.00000001 -0.00000002  -0.00000001 -0.00000002   0.99337641 -0.06355489
7.412500e+08   0.99336275 -0.06362616  -0.00000001 -0.00000002  -0.00000001 -0.00000002   0.99336275 -0.06362616
7.413750e+08   0.99334903 -0.06369754  -0.00000001 -0.00000003  -0.00000001 -0.00000003   0.99334903 -0.06369754
7.415000e+08   0.99333528 -0.06376906  -0.00000001 -0.00000003  -0.00000001 -0.00000003   0.99333528 -0.06376906
7.416250e+08   0.99332149 -0.06384070  -0.00000001 -0.00000003  -0.00000001 -0.00000003   0.99332149 -0.06384070
7.417500e+08   0.99330766 -0.06391247  -0.00000001 -0.00000003  -0.00000001 -0.00000003   0.99330766 -0.06391247
7.418750e+08   0.99329378 -0.06398437  -0.00000001 -0.00000003  -0.00000001 -0.00000003   0.99329378 -0.06398437
7.420000e+08   0.99327986 -0.06405640  -0.00000001 -0.00000003  -0.00000001 -0.00000003   0.99327986 -0.06405640
7.421250e+08   0.99326591 -0.06412856  -0.00000001 -0.00000003  -0.00000001 -0.00000003   0.99326591 -0.06412856
7.422500e+08   0.99325191 -0.06420084  -0.00000001 -0.00000003  -0.00000001 -0.00000003   0.99325191 -0.06420084
7.423750e+08   0.99323786 -0.06427326  -0.00000001 -0.00000003  -0.00000001 -0.00000003   0.99323786 -0.06427326
7.425000e+08   0.99322378 -0.06434580  -0.00000001 -0.00000003  -0.00000001 -0.00000003   0.99322378 -0.06434580
7.426250e+08   0.99320965 -0.06441848  -0.00000001 -0.00000003  -0.00000001 -0.00000003   0.99320965 -0.06441848
7.427500e+08   0.99319548 -0.06449128  -0.00000001 -0.00000003  -0.00000001 -0.00000003   0.99319548 -0.06449128
7.428750e+08   0.99318127 -0.06456422  -0.00000001 -0.00000003  -0.00000001 -0.00000003   0.99318127 -0.06456422
7.430000e+08   0.99316701 -0.06463729  -0.00000001 -0.00000003  -0.00000001 -0.00000003   0.99316701 -0.06463729
7.431250e+08   0.99315272 -0.06471049  -0.00000001 -0.00000003  -0.00000001 -0.00000003   0.99315272 -0.06471049
7.432500e+08   0.99313838 -0.06478382  -0.00000001 -0.00000003  -0.00000001 -0.00000003   0.99313838 -0.06478382
7.433750e+08   0.99312399 -0.06485728  -0.00000001 -0.00000003  -0.00000001 -0.00000003   0.99312399 -0.06485728
7.435000e+08   0.99310956 -0.06493088  -0.00000001 -0.00000003  -0.00000001 -0.00000003   0.99310956 -0.06493088
7.436250e+08   0.99309509 -0.06500461  -0.00000001 -0.00000003  -0.00000001 -0.00000003   0.99309509 -0.06500461
7.437500e+08   0.99308057 -0.06507848  -0.00000001 -0.00000003  -0.00000001 -0.00000003   0.99308057 -0.06507848
7.438750e+08   0.99306601 -0.06515248  -0.00000001 -0.00000003  -0.00000001 -0.00000003   0.99306601 -0.06515248
7.440000e+08   0.99305141 -0.06522661  -0.00000001 -0.00000003  -0.00000001 -0.00000003   0.99305141 -0.06522661
7.441250e+08   0.99303676 -0.06530088  -0.00000001 -0.00000003  -0.00000001 -0.00000003   0.99303676 -0.06530088
7.442500e+08   0.99302207 -0.06537528  -0.00000001 -0.00000003  -0.00000001 -0.00000003   0.99302207 -0.06537528
7.443750e+08   0.99300733 -0.06544982  -0.00000001 -0.00000003  -0.00000001 -0.00000003   0.99300733 -0.06544982
7.445000e+08   0.99299254 -0.06552449  -0.00000001 -0.00000003  -0.00000001 -0.00000003   0.99299254 -0.06552449
7.446250e+08   0.99297772 -0.06559931  -0.00000001 -0.00000003  -0.00000001 -0.00000003   0.99297772 -0.06559931
7.447500e+08   0.99296284 -0.06567425  -0.00000001 -0.00000003  -0.00000001 -0.00000003   0.99296284 -0.06567425
7.448750e+08   0.99294792 -0.06574934  -0.00000001 -0.00000003  -0.00000001 -0.00000003   0.99294792 -0.06574934
7.450000e+08   0.99293296 -0.06582456  -0.00000001 -0.00000003  -0.00000001 -0.00000003   0.99293296 -0.06582456
7.451250e+08   0.99291795 -0.06589992  -0.00000001 -0.00000003  -0.00000001 -0.00000003   0.99291795 -0.06589992
7.452500e+08   0.99290289 -0.06597542  -0.00000001 -0.00000003  -0.00000001 -0.00000003   0.99290289 -0.06597542
7.453750e+08   0.99288779 -0.06605106  -0.00000001 -0.00000003  -0.00000001 -0.00000003   0.99288779 -0.06605106
7.455000e+08   0.99287264 -0.06612684  -0.00000001 -0.00000003  -0.00000001 -0.00000003   0.99287264 -0.06612684
7.456250e+08   0.99285744 -0.06620276  -0.00000001 -0.00000003  -0.00000001 -0.00000003   0.99285744 -0.06620276
7.457500e+08   0.99284220 -0.06627881  -0.00000001 -0.00000003  -0.00000001 -0.00000003   0.99284220 -0.06627881
7.458750e+08   0.99282691 -0.06635501  -0.00000001 -0.00000003  -0.00000001 -0.00000003   0.99282691 -0.06635501
7.460000e+08   0.99281157 -0.06643135  -0.00000001 -0.00000003  -0.00000001 -0.00000003   0.99281157 -0.06643135
7.461250e+08   0.99279618 -0.06650783  -0.00000001 -0.00000003  -0.00000001 -0.00000003   0.99279618 -0.06650783
7.462500e+08   0.99278075 -0.06658445  -0.00000001 -0.00000003  -0.00000001 -0.00000003   0.99278075 -0.06658445
7.463750e+08   0.99276527 -0.06666122  -0.00000001 -0.00000003  -0.00000001 -0.00000003   0.99276527 -0.06666122
7.465000e+08   0.99274974 -0.06673812  -0.00000001 -0.00000003  -0.00000001 -0.00000003   0.99274974 -0.06673812
7.466250e+08   0.99273416 -0.06681517  -0.00000001 -0.00000003  -0.00000001 -0.00000003   0.99273416 -0.06681517
7.467500e+08   0.99271854 -0.06689237  -0.00000002 -0.00000003  -0.00000002 -0.00000003   0.99271854 -0.06689237
7.468750e+08   0.99270287 -0.06696971  -0.00000002 -0.00000003  -0.00000002 -0.00000003   0.99270287 -0.06696971
7.470000e+08   0.99268714 -0.06704719  -0.00000002 -0.00000003  -0.00000002 -0.00000003   0.99268714 -0.06704719
7.471250e+08   0.99267137 -0.06712481  -0.00000002 -0.00000003  -0.00000002 -0.00000003   0.99267137 -0.06712481
7.472500e+08   0.99265555 -0.06720258  -0.00000002 -0.00000003  -0.00000002 -0.00000003   0.99265555 -0.06720258
7.473750e+08   0.99263968 -0.06728050  -0.00000002 -0.00000003  -0.00000002 -0.00000003   0.99263968 -0.06728050
7.475000e+08   0.99262376 -0.06735856  -0.00000002 -0.00000003  -0.00000002 -0.00000003   0.99262376 -0.06735856
7.476250e+08   0.99260779 -0.06743677  -0.00000002 -0.00000003  -0.00000002 -0.00000003   0.99260779 -0.06743677
7.477500e+08   0.99259177 -0.06751513  -0.00000002 -0.00000003  -0.00000002 -0.00000003   0.99259177 -0.06751513
7.478750e+08   0.99257570 -0.06759363  -0.00000002 -0.00000003  -0.00000002 -0.00000003   0.99257570 -0.06759363
7.480000e+08   0.99255958 -0.06767228  -0.00000002 -0.00000003  -0.00000002 -0.00000003   0.99255958 -0.06767228
7.481250e+08   0.99254341 -0.06775108  -0.00000002 -0.00000003  -0.00000002 -0.00000003   0.99254341 -0.06775108
7.482500e+08   0.99252719 -0.06783003  -0.00000002 -0.00000003  -0.00000002 -0.00000003   0.99252719 -0.06783003
7.483750e+08   0.99251092 -0.06790913  -0.00000002 -0.00000003  -0.00000002 -0.00000003   0.99251092 -0.06790913
7.485000e+08   0.99249459 -0.06798838  -0.00000002 -0.00000003  -0.00000002 -0.00000003   0.99249459 -0.06798838
7.486250e+08   0.99247822 -0.06806777  -0.00000002 -0.00000003  -0.00000002 -0.00000003   0.99247822 -0.06806777
7.487500e+08   0.99246179 -0.06814732  -0.00000002 -0.00000003  -0.00000002 -0.00000003   0.99246179 -0.06814732
7.488750e+08   0.99244531 -0.06822702  -0.00000002 -0.00000004  -0.00000002 -0.00000004   0.99244531 -0.06822702
7.490000e+08   0.99242878 -0.06830687  -0.00000002 -0.00000004  -0.00000002 -0.00000004   0.99242878 -0.06830687
7.491250e+08   0.99241220 -0.06838687  -0.00000002 -0.00000004  -0.00000002 -0.00000004   0.99241220 -0.06838687
7.492500e+08   0.99239556 -0.06846703  -0.00000002 -0.00000004  -0.00000002 -0.00000004   0.99239556 -0.06846703
7.493750e+08   0.99237887 -0.06854733  -0.00000002 -0.00000004  -0.00000002 -0.00000004   0.99237887 -0.06854733
7.495000e+08   0.99236213 -0.06862779  -0.00000002 -0.00000004  -0.00000002 -0.00000004   0.99236213 -0.06862779
7.496250e+08   0.99234534 -0.06870841  -0.00000002 -0.00000004  -0.00000002 -0.00000004   0.99234534 -0.06870841
7.497500e+08   0.99232849 -0.06878917  -0.00000002 -0.00000004  -0.00000002 -0.00000004   0.99232849 -0.06878917
7.498750e+08   0.99231158 -0.06887010  -0.00000002 -0.00000004  -0.00000002 -0.00000004   0.99231158 -0.06887010
7.500000e+08   0.99229463 -0.06895117  -0.00000002 -0.00000004  -0.00000002 -0.00000004   0.99229463 -0.06895117
7.501250e+08   0.99227762 -0.06903241  -0.00000002 -0.00000004  -0.00000002 -0.00000004   0.99227762 -0.06903241
7.502500e+08   0.99226055 -0.06911379  -0.00000002 -0.00000004  -0.00000002 -0.00000004   0.99226055 -0.06911379
7.503750e+08   0.99224343 -0.06919534  -0.00000002 -0.00000004  -0.00000002 -0.00000004   0.99224343 -0.06919534
7.505000e+08   0.99222626 -0.06927704  -0.00000002 -0.00000004  -0.00000002 -0.00000004   0.99222626 -0.06927704
7.506250e+08   0.99220903 -0.06935890  -0.00000002 -0.00000004  -0.00000002 -0.00000004   0.99220903 -0.06935890
7.507500e+08   0.99219175 -0.06944092  -0.00000002 -0.00000004  -0.00000002 -0.00000004   0.99219175 -0.06944092
7.508750e+08   0.99217441 -0.06952310  -0.00000002 -0.00000004  -0.00000002 -0.00000004   0.99217441 -0.06952310
7.510000e+08   0.99215701 -0.06960543  -0.00000002 -0.00000004  -0.00000002 -0.00000004   0.99215701 -0.06960543
7.511250e+08   0.99213956 -0.06968793  -0.00000002 -0.00000004  -0.00000002 -0.00000004   0.99213956 -0.06968793
7.512500e+08   0.99212205 -0.06977058  -0.00000002 -0.00000004  -0.00000002 -0.00000004   0.99212205 -0.06977058
7.513750e+08   0.99210449 -0.06985340  -0.00000002 -0.00000004  -0.00000002 -0.00000004   0.99210449 -0.06985340
7.515000e+08   0.99208687 -0.06993637  -0.00000002 -0.00000004  -0.00000002 -0.00000004   0.99208687 -0.06993637
7.516250e+08   0.99206919 -0.07001951  -0.00000002 -0.00000004  -0.00000002 -0.00000004   0.99206919 -0.07001951
7.517500e+08   0.99205145 -0.07010281  -0.00000002 -0.00000004  -0.00000002 -0.00000004   0.99205145 -0.07010281
7.518750e+08   0.99203366 -0.07018627  -0.00000002 -0.00000004  -0.00000002 -0.00000004   0.99203366 -0.07018627
7.520000e+08   0.99201581 -0.07026989  -0.00000002 -0.00000004  -0.00000002 -0.00000004   0.99201581 -0.07026989
7.521250e+08   0.99199790 -0.07035368  -0.00000002 -0.00000004  -0.00000002 -0.00000004   0.99199790 -0.07035368
7.522500e+08   0.99197994 -0.07043763  -0.00000002 -0.00000004  -0.00000002 -0.00000004   0.99197994 -0.07043763
7.523750e+08   0.99196191 -0.07052175  -0.00000002 -0.00000004  -0.00000002 -0.00000004   0.99196191 -0.07052175
7.525000e+08   0.99194383 -0.07060603  -0.00000002 -0.00000004  -0.00000002 -0.00000004   0.99194383 -0.07060603
7.526250e+08   0.99192569 -0.07069047  -0.00000002 -0.00000004  -0.00000002 -0.00000004   0.99192569 -0.07069047
7.527500e+08   0.99190749 -0.07077509  -0.00000002 -0.00000004  -0.00000002 -0.00000004   0.99190749 -0.07077509
7.528750e+08   0.99188923 -0.07085986  -0.00000002 -0.00000004  -0.00000002 -0.00000004   0.99188923 -0.07085986
7.530000e+08   0.99187091 -0.07094481  -0.00000002 -0.00000004  -0.00000002 -0.00000004   0.99187091 -0.07094481
7.531250e+08   0.99185252 -0.07102992  -0.00000002 -0.00000004  -0.00000002 -0.00000004   0.99185252 -0.07102992
7.532500e+08   0.99183408 -0.07111520  -0.00000002 -0.00000004  -0.00000002 -0.00000004   0.99183408 -0.07111520
7.533750e+08   0.99181558 -0.07120065  -0.00000002 -0.00000004  -0.00000002 -0.00000004   0.99181558 -0.07120065
7.535000e+08   0.99179702 -0.07128627  -0.00000002 -0.00000004  -0.00000002 -0.00000004   0.99179702 -0.07128627
7.536250e+08   0.99177840 -0.07137206  -0.00000002 -0.00000004  -0.00000002 -0.00000004   0.99177840 -0.07137206
7.537500e+08   0.99175971 -0.07145802  -0.00000002 -0.00000004  -0.00000002 -0.00000004   0.99175971 -0.07145802
7.538750e+08   0.99174097 -0.07154414  -0.00000002 -0.00000004  -0.00000002 -0.00000004   0.99174097 -0.07154414
7.540000e+08   0.99172216 -0.07163044  -0.00000002 -0.00000004  -0.00000002 -0.00000004   0.99172216 -0.07163044
7.541250e+08   0.99170329 -0.07171691  -0.00000002 -0.00000004  -0.00000002 -0.00000004   0.99170329 -0.07171691
7.542500e+08   0.99168436 -0.07180356  -0.00000002 -0.00000005  -0.00000002 -0.00000005   0.99168436 -0.07180356
7.543750e+08   0.99166537 -0.07189037  -0.00000002 -0.00000005  -0.00000002 -0.00000005   0.99166537 -0.07189037
7.545000e+08   0.99164631 -0.07197736  -0.00000002 -0.00000005  -0.00000002 -0.00000005   0.99164631 -0.07197736
7.546250e+08   0.99162719 -0.07206453  -0.00000002 -0.00000005  -0.00000002 -0.00000005   0.99162719 -0.07206453
7.547500e+08   0.99160801 -0.07215187  -0.00000002 -0.00000005  -0.00000002 -0.00000005   0.99160801 -0.07215187
7.548750e+08   0.99158876 -0.07223938  -0.00000002 -0.00000005  -0.00000002 -0.00000005   0.99158876 -0.07223938
7.550000e+08   0.99156945 -0.07232707  -0.00000002 -0.00000005  -0.00000002 -0.00000005   0.99156945 -0.07232707
7.551250e+08   0.99155007 -0.07241493  -0.00000002 -0.00000005  -0.00000002 -0.00000005   0.99155007 -0.07241493
7.552500e+08   0.99153063 -0.07250297  -0.00000002 -0.00000005  -0.00000002 -0.00000005   0.99153063 -0.07250297
7.553750e+08   0.99151113 -0.07259119  -0.00000002 -0.00000005  -0.00000002 -0.00000005   0.99151113 -0.07259119
7.555000e+08   0.99149156 -0.07267959  -0.00000002 -0.00000005  -0.00000002 -0.00000005   0.99149156 -0.07267959
7.556250e+08   0.99147192 -0.07276816  -0.00000002 -0.00000005  -0.00000002 -0.00000005   0.99147192 -0.07276816
7.557500e+08   0.99145222 -0.07285691  -0.00000002 -0.00000005  -0.00000002 -0.00000005   0.99145222 -0.07285691
7.558750e+08   0.99143245 -0.07294585  -0.00000003 -0.00000005  -0.00000003 -0.00000005   0.99143245 -0.07294585
7.560000e+08   0.99141262 -0.07303496  -0.00000003 -0.00000005  -0.00000003 -0.00000005   0.99141262 -0.07303496
7.561250e+08   0.99139272 -0.07312425  -0.00000003 -0.00000005  -0.00000003 -0.00000005   0.99139272 -0.07312425
7.562500e+08   0.99137275 -0.07321373  -0.00000003 -0.00000005  -0.00000003 -0.00000005   0.99137275 -0.07321373
7.563750e+08   0.99135272 -0.07330338  -0.00000003 -0.00000005  -0.00000003 -0.00000005   0.99135272 -0.07330338
7.565000e+08   0.99133262 -0.07339322  -0.00000003 -0.00000005  -0.00000003 -0.00000005   0.99133262 -0.07339322
7.566250e+08   0.99131245 -0.07348324  -0.00000003 -0.00000005  -0.00000003 -0.00000005   0.99131245 -0.07348324
7.567500e+08   0.99129221 -0.07357345  -0.00000003 -0.00000005  -0.00000003 -0.00000005   0.99129221 -0.07357345
7.568750e+08   0.99127191 -0.07366384  -0.00000003 -0.00000005  -0.00000003 -0.00000005   0.99127191 -0.07366384
7.570000e+08   0.99125153 -0.07375441  -0.00000003 -0.00000005  -0.00000003 -0.00000005   0.99125153 -0.07375441
7.571250e+08   0.99123109 -0.07384517  -0.00000003 -0.00000005  -0.00000003 -0.00000005   0.99123109 -0.07384517
7.572500e+08   0.99121058 -0.07393611  -0.00000003 -0.00000005  -0.00000003 -0.00000005   0.99121058 -0.07393611
7.573750e+08   0.99118999 -0.07402724  -0.00000003 -0.00000005  -0.00000003 -0.00000005   0.99118999 -0.07402724
7.575000e+08   0.99116934 -0.07411856  -0.00000003 -0.00000005  -0.00000003 -0.00000005   0.99116934 -0.07411856
7.576250e+08   0.99114862 -0.07421007  -0.00000003 -0.00000005  -0.00000003 -0.00000005   0.99114862 -0.07421007
7.577500e+08   0.99112783 -0.07430176  -0.00000003 -0.00000005  -0.00000003 -0.00000005   0.99112783 -0.07430176
7.578750e+08   0.99110696 -0.07439365  -0.00000003 -0.00000005  -0.00000003 -0.00000005   0.99110696 -0.07439365
7.580000e+08   0.99108603 -0.07448572  -0.00000003 -0.00000005  -0.00000003 -0.00000005   0.99108603 -0.07448572
7.581250e+08   0.99106502 -0.07457798  -0.00000003 -0.00000005  -0.00000003 -0.00000005   0.99106502 -0.07457798
7.582500e+08   0.99104395 -0.07467043  -0.00000003 -0.00000005  -0.00000003 -0.00000005   0.99104395 -0.07467043
7.583750e+08   0.99102280 -0.07476308  -0.00000003 -0.00000005  -0.00000003 -0.00000005   0.99102280 -0.07476308
7.585000e+08   0.99100157 -0.07485592  -0.00000003 -0.00000006  -0.00000003 -0.00000006   0.99100157 -0.07485592
7.586250e+08   0.99098028 -0.07494894  -0.00000003 -0.00000006  -0.00000003 -0.00000006   0.99098028 -0.07494894
7.587500e+08   0.99095891 -0.07504217  -0.00000003 -0.00000006  -0.00000003 -0.00000006   0.99095891 -0.07504217
7.588750e+08   0.99093747 -0.07513558  -0.00000003 -0.00000006  -0.00000003 -0.00000006   0.99093747 -0.07513558
7.590000e+08   0.99091596 -0.07522919  -0.00000003 -0.00000006  -0.00000003 -0.00000006   0.99091596 -0.07522919
7.591250e+08   0.99089437 -0.07532300  -0.00000003 -0.00000006  -0.00000003 -0.00000006   0.99089437 -0.07532300
7.592500e+08   0.99087270 -0.07541700  -0.00000003 -0.00000006  -0.00000003 -0.00000006   0.99087270 -0.07541700
7.593750e+08   0.99085096 -0.07551120  -0.00000003 -0.00000006  -0.00000003 -0.00000006   0.99085096 -0.07551120
7.595000e+08   0.99082915 -0.07560559  -0.00000003 -0.00000006  -0.00000003 -0.00000006   0.99082915 -0.07560559
7.596250e+08   0.99080726 -0.07570019  -0.00000003 -0.00000006  -0.00000003 -0.00000006   0.99080726 -0.07570019
7.597500e+08   0.99078530 -0.07579498  -0.00000003 -0.00000006  -0.00000003 -0.00000006   0.99078530 -0.07579498
7.598750e+08   0.99076325 -0.07588997  -0.00000003 -0.00000006  -0.00000003 -0.00000006   0.99076325 -0.07588997
7.600000e+08   0.99074114 -0.07598516  -0.00000003 -0.00000006  -0.00000003 -0.00000006   0.99074114 -0.07598516
7.601250e+08   0.99071894 -0.07608054  -0.00000003 -0.00000006  -0.00000003 -0.00000006   0.99071894 -0.07608054
7.602500e+08   0.99069667 -0.07617614  -0.00000003 -0.00000006  -0.00000003 -0.00000006   0.99069667 -0.07617614
7.603750e+08   0.99067432 -0.07627193  -0.00000003 -0.00000006  -0.00000003 -0.00000006   0.99067432 -0.07627193
7.605000e+08   0.99065189 -0.07636792  -0.00000003 -0.00000006  -0.00000003 -0.00000006   0.99065189 -0.07636792
7.606250e+08   0.99062939 -0.07646412  -0.00000003 -0.00000006  -0.00000003 -0.00000006   0.99062939 -0.07646412
7.607500e+08   0.99060681 -0.07656052  -0.00000003 -0.00000006  -0.00000003 -0.00000006   0.99060681 -0.07656052
7.608750e+08   0.99058414 -0.07665712  -0.00000003 -0.00000006  -0.00000003 -0.00000006   0.99058414 -0.07665712
7.610000e+08   0.99056140 -0.07675393  -0.00000003 -0.00000006  -0.00000003 -0.00000006   0.99056140 -0.07675393
7.611250e+08   0.99053858 -0.07685095  -0.00000003 -0.00000006  -0.00000003 -0.00000006   0.99053858 -0.07685095
7.612500e+08   0.99051568 -0.07694817  -0.00000003 -0.00000006  -0.00000003 -0.00000006   0.99051568 -0.07694817
7.613750e+08   0.99049269 -0.07704560  -0.00000003 -0.00000006  -0.00000003 -0.00000006   0.99049269 -0.07704560
7.615000e+08   0.99046963 -0.07714324  -0.00000003 -0.00000006  -0.00000003 -0.00000006   0.99046963 -0.07714324
7.616250e+08   0.99044649 -0.07724108  -0.00000004 -0.00000006  -0.00000004 -0.00000006   0.99044649 -0.07724108
7.617500e+08   0.99042326 -0.07733914  -0.00000004 -0.00000006  -0.00000004 -0.00000006   0.99042326 -0.07733914
7.618750e+08   0.99039995 -0.07743740  -0.00000004 -0.00000007  -0.00000004 -0.00000007   0.99039995 -0.07743740
7.620000e+08   0.99037656 -0.07753587  -0.00000004 -0.00000007  -0.00000004 -0.00000007   0.99037656 -0.07753587
7.621250e+08   0.99035309 -0.07763456  -0.00000004 -0.00000007  -0.00000004 -0.00000007   0.99035309 -0.07763456
7.622500e+08   0.99032953 -0.07773346  -0.00000004 -0.00000007  -0.00000004 -0.00000007   0.99032953 -0.07773346
7.623750e+08   0.99030589 -0.07783257  -0.00000004 -0.00000007  -0.00000004 -0.00000007   0.99030589 -0.07783257
7.625000e+08   0.99028217 -0.07793189  -0.00000004 -0.00000007  -0.00000004 -0.00000007   0.99028217 -0.07793189
7.626250e+08   0.99025836 -0.07803143  -0.00000004 -0.00000007  -0.00000004 -0.00000007   0.99025836 -0.07803143
7.627500e+08   0.99023447 -0.07813118  -0.00000004 -0.00000007  -0.00000004 -0.00000007   0.99023447 -0.07813118
7.628750e+08   0.99021049 -0.07823114  -0.00000004 -0.00000007  -0.00000004 -0.00000007   0.99021049 -0.07823114
7.630000e+08   0.99018643 -0.07833133  -0.00000004 -0.00000007  -0.00000004 -0.00000007   0.99018643 -0.07833133
7.631250e+08   0.99016228 -0.07843173  -0.00000004 -0.00000007  -0.00000004 -0.00000007   0.99016228 -0.07843173
7.632500e+08   0.99013804 -0.07853235  -0.00000004 -0.00000007  -0.00000004 -0.00000007   0.99013804 -0.07853235
7.633750e+08   0.99011372 -0.07863318  -0.00000004 -0.00000007  -0.00000004 -0.00000007   0.99011372 -0.07863318
7.635000e+08   0.99008931 -0.07873424  -0.00000004 -0.00000007  -0.00000004 -0.00000007   0.99008931 -0.07873424
7.636250e+08   0.99006482 -0.07883551  -0.00000004 -0.00000007  -0.00000004 -0.00000007   0.99006482 -0.07883551
7.637500e+08   0.99004023 -0.07893701  -0.00000004 -0.00000007  -0.00000004 -0.00000007   0.99004023 -0.07893701
7.638750e+08   0.99001556 -0.07903872  -0.00000004 -0.00000007  -0.00000004 -0.00000007   0.99001556 -0.07903872
7.640000e+08   0.98999080 -0.07914066  -0.00000004 -0.00000007  -0.00000004 -0.00000007   0.98999080 -0.07914066
7.641250e+08   0.98996595 -0.07924283  -0.00000004 -0.00000007  -0.00000004 -0.00000007   0.98996595 -0.07924283
7.642500e+08   0.98994100 -0.07934521  -0.00000004 -0.00000007  -0.00000004 -0.00000007   0.98994100 -0.07934521
7.643750e+08   0.98991597 -0.07944782  -0.00000004 -0.00000007  -0.00000004 -0.00000007   0.98991597 -0.07944782
7.645000e+08   0.98989085 -0.07955066  -0.00000004 -0.00000007  -0.00000004 -0.00000007   0.98989085 -0.07955066
7.646250e+08   0.98986564 -0.07965372  -0.00000004 -0.00000007  -0.00000004 -0.00000007   0.98986564 -0.07965372
7.647500e+08   0.98984034 -0.07975700  -0.00000004 -0.00000008  -0.00000004 -0.00000008   0.98984034 -0.07975700
7.648750e+08   0.98981494 -0.07986052  -0.00000004 -0.00000008  -0.00000004 -0.00000008   0.98981494 -0.07986052
7.650000e+08   0.98978946 -0.07996426  -0.00000004 -0.00000008  -0.00000004 -0.00000008   0.98978946 -0.07996426
7.651250e+08   0.98976388 -0.08006823  -0.00000004 -0.00000008  -0.00000004 -0.00000008   0.98976388 -0.08006823
7.652500e+08   0.98973820 -0.08017244  -0.00000004 -0.00000008  -0.00000004 -0.00000008   0.98973820 -0.08017244
7.653750e+08   0.98971244 -0.08027687  -0.00000004 -0.00000008  -0.00000004 -0.00000008   0.98971244 -0.08027687
7.655000e+08   0.98968658 -0.08038153  -0.00000004 -0.00000008  -0.00000004 -0.00000008   0.98968658 -0.08038153
7.656250e+08   0.98966062 -0.08048643  -0.00000004 -0.00000008  -0.00000004 -0.00000008   0.98966062 -0.08048643
7.657500e+08   0.98963457 -0.08059156  -0.00000004 -0.00000008  -0.00000004 -0.00000008   0.98963457 -0.08059156
7.658750e+08   0.98960843 -0.08069692  -0.00000005 -0.00000008  -0.00000005 -0.00000008   0.98960843 -0.08069692
7.660000e+08   0.98958219 -0.08080252  -0.00000005 -0.00000008  -0.00000005 -0.00000008   0.98958219 -0.08080252
7.661250e+08   0.98955585 -0.08090835  -0.00000005 -0.00000008  -0.00000005 -0.00000008   0.98955585 -0.08090835
7.662500e+08   0.98952942 -0.08101442  -0.00000005 -0.00000008  -0.00000005 -0.00000008   0.98952942 -0.08101442
7.663750e+08   0.98950288 -0.08112072  -0.00000005 -0.00000008  -0.00000005 -0.00000008   0.98950288 -0.08112072
7.665000e+08   0.98947626 -0.08122726  -0.00000005 -0.00000008  -0.00000005 -0.00000008   0.98947626 -0.08122726
7.666250e+08   0.98944953 -0.08133405  -0.00000005 -0.00000008  -0.00000005 -0.00000008   0.98944953 -0.08133405
7.667500e+08   0.98942270 -0.08144107  -0.00000005 -0.00000008  -0.00000005 -0.00000008   0.98942270 -0.08144107
7.668750e+08   0.98939578 -0.08154833  -0.00000005 -0.00000008  -0.00000005 -0.00000008   0.98939578 -0.08154833
7.670000e+08   0.98936875 -0.08165583  -0.00000005 -0.00000008  -0.00000005 -0.00000008   0.98936875 -0.08165583
7.671250e+08   0.98934163 -0.08176358  -0.00000005 -0.00000008  -0.00000005 -0.00000008   0.98934163 -0.08176358
7.672500e+08   0.98931440 -0.08187157  -0.00000005 -0.00000009  -0.00000005 -0.00000009   0.98931440 -0.08187157
7.673750e+08   0.98928708 -0.08197980  -0.00000005 -0.00000009  -0.00000005 -0.00000009   0.98928708 -0.08197980
7.675000e+08   0.98925965 -0.08208827  -0.00000005 -0.00000009  -0.00000005 -0.00000009   0.98925965 -0.08208827
7.676250e+08   0.98923212 -0.08219699  -0.00000005 -0.00000009  -0.00000005 -0.00000009   0.98923212 -0.08219699
7.677500e+08   0.98920449 -0.08230596  -0.00000005 -0.00000009  -0.00000005 -0.00000009   0.98920449 -0.08230596
7.678750e+08   0.98917675 -0.08241517  -0.00000005 -0.00000009  -0.00000005 -0.00000009   0.98917675 -0.08241517
7.680000e+08   0.98914892 -0.08252464  -0.00000005 -0.00000009  -0.00000005 -0.00000009   0.98914892 -0.08252464
7.681250e+08   0.98912097 -0.08263435  -0.00000005 -0.00000009  -0.00000005 -0.00000009   0.98912097 -0.08263435
7.682500e+08   0.98909292 -0.08274431  -0.00000005 -0.00000009  -0.00000005 -0.00000009   0.98909292 -0.08274431
7.683750e+08   0.98906477 -0.08285452  -0.00000005 -0.00000009  -0.00000005 -0.00000009   0.98906477 -0.08285452
7.685000e+08   0.98903651 -0.08296498  -0.00000005 -0.00000009  -0.00000005 -0.00000009   0.98903651 -0.08296498
7.686250e+08   0.98900815 -0.08307570  -0.00000005 -0.00000009  -0.00000005 -0.00000009   0.98900815 -0.08307570
7.687500e+08   0.98897968 -0.08318667  -0.00000005 -0.00000009  -0.00000005 -0.00000009   0.98897968 -0.08318667
7.688750e+08   0.98895110 -0.08329789  -0.00000005 -0.00000009  -0.00000005 -0.00000009   0.98895110 -0.08329789
7.690000e+08   0.98892241 -0.08340937  -0.00000006 -0.00000009  -0.00000006 -0.00000009   0.98892241 -0.08340937
7.691250e+08   0.98889362 -0.08352110  -0.00000006 -0.00000009  -0.00000006 -0.00000009   0.98889362 -0.08352110
7.692500e+08   0.98886472 -0.08363309  -0.00000006 -0.00000009  -0.00000006 -0.00000009   0.98886472 -0.08363309
7.693750e+08   0.98883570 -0.08374534  -0.00000006 -0.00000010  -0.00000006 -0.00000010   0.98883570 -0.08374534
7.695000e+08   0.98880658 -0.08385785  -0.00000006 -0.00000010  -0.00000006 -0.00000010   0.98880658 -0.08385785
7.696250e+08   0.98877735 -0.08397061  -0.00000006 -0.00000010  -0.00000006 -0.00000010   0.98877735 -0.08397061
7.697500e+08   0.98874800 -0.08408364  -0.00000006 -0.00000010  -0.00000006 -0.00000010   0.98874800 -0.08408364
7.698750e+08   0.98871855 -0.08419693  -0.00000006 -0.00000010  -0.00000006 -0.00000010   0.98871855 -0.08419693
7.700000e+08   0.98868898 -0.08431048  -0.00000006 -0.00000010  -0.00000006 -0.00000010   0.98868898 -0.08431048
7.701250e+08   0.98865930 -0.08442429  -0.00000006 -0.00000010  -0.00000006 -0.00000010   0.98865930 -0.08442429
7.702500e+08   0.98862951 -0.08453837  -0.00000006 -0.00000010  -0.00000006 -0.00000010   0.98862951 -0.08453837
7.703750e+08   0.98859960 -0.08465271  -0.00000006 -0.00000010  -0.00000006 -0.00000010   0.98859960 -0.08465271
7.705000e+08   0.98856958 -0.08476732  -0.00000006 -0.00000010  -0.00000006 -0.00000010   0.98856958 -0.08476732
7.706250e+08   0.98853944 -0.08488220  -0.00000006 -0.00000010  -0.00000006 -0.00000010   0.98853944 -0.08488220
7.707500e+08   0.98850919 -0.08499734  -0.00000006 -0.00000010  -0.00000006 -0.00000010   0.98850919 -0.08499734
7.708750e+08   0.98847882 -0.08511276  -0.00000006 -0.00000010  -0.00000006 -0.00000010   0.98847882 -0.08511276
7.710000e+08   0.98844834 -0.08522844  -0.00000006 -0.00000010  -0.00000006 -0.00000010   0.98844834 -0.08522844
7.711250e+08   0.98841773 -0.08534440  -0.00000006 -0.00000010  -0.00000006 -0.00000010   0.98841773 -0.08534440
7.712500e+08   0.98838701 -0.08546062  -0.00000006 -0.00000010  -0.00000006 -0.00000010   0.98838701 -0.08546062
7.713750e+08   0.98835617 -0.08557712  -0.00000006 -0.00000011  -0.00000006 -0.00000011   0.98835617 -0.08557712
7.715000e+08   0.98832522 -0.08569389  -0.00000006 -0.00000011  -0.00000006 -0.00000011   0.98832522 -0.08569389
7.716250e+08   0.98829414 -0.08581094  -0.00000007 -0.00000011  -0.00000007 -0.00000011   0.98829414 -0.08581094
7.717500e+08   0.98826294 -0.08592827  -0.00000007 -0.00000011  -0.00000007 -0.00000011   0.98826294 -0.08592827
7.718750e+08   0.98823162 -0.08604587  -0.00000007 -0.00000011  -0.00000007 -0.00000011   0.98823162 -0.08604587
7.720000e+08   0.98820018 -0.08616375  -0.00000007 -0.00000011  -0.00000007 -0.00000011   0.98820018 -0.08616375
7.721250e+08   0.98816862 -0.08628190  -0.00000007 -0.00000011  -0.00000007 -0.00000011   0.98816862 -0.08628190
7.722500e+08   0.98813693 -0.08640034  -0.00000007 -0.00000011  -0.00000007 -0.00000011   0.98813693 -0.08640034
7.723750e+08   0.98810512 -0.08651906  -0.00000007 -0.00000011  -0.00000007 -0.00000011   0.98810512 -0.08651906
7.725000e+08   0.98807319 -0.08663806  -0.00000007 -0.00000011  -0.00000007 -0.00000011   0.98807319 -0.08663806
7.726250e+08   0.98804113 -0.08675734  -0.00000007 -0.00000011  -0.00000007 -0.00000011   0.98804113 -0.08675734
7.727500e+08   0.98800895 -0.08687691  -0.00000007 -0.00000011  -0.00000007 -0.00000011   0.98800895 -0.08687691
7.728750e+08   0.98797664 -0.08699676  -0.00000007 -0.00000011  -0.00000007 -0.00000011   0.98797664 -0.08699676
7.730000e+08   0.98794420 -0.08711690  -0.00000007 -0.00000011  -0.00000007 -0.00000011   0.98794420 -0.08711690
7.731250e+08   0.98791164 -0.08723733  -0.00000007 -0.00000012  -0.00000007 -0.00000012   0.98791164 -0.08723733
7.732500e+08   0.98787895 -0.08735804  -0.00000007 -0.00000012  -0.00000007 -0.00000012   0.98787895 -0.08735804
7.733750e+08   0.98784613 -0.08747904  -0.00000007 -0.00000012  -0.00000007 -0.00000012   0.98784613 -0.08747904
7.735000e+08   0.98781318 -0.08760034  -0.00000007 -0.00000012  -0.00000007 -0.00000012   0.98781318 -0.08760034
7.736250e+08   0.98778010 -0.08772192  -0.00000007 -0.00000012  -0.00000007 -0.00000012   0.98778010 -0.08772192
7.737500e+08   0.98774689 -0.08784380  -0.00000007 -0.00000012  -0.00000007 -0.00000012   0.98774689 -0.08784380
7.738750e+08   0.98771355 -0.08796597  -0.00000008 -0.00000012  -0.00000008 -0.00000012   0.98771355 -0.08796597
7.740000e+08   0.98768007 -0.08808843  -0.00000008 -0.00000012  -0.00000008 -0.00000012   0.98768007 -0.08808843
7.741250e+08   0.98764647 -0.08821120  -0.00000008 -0.00000012  -0.00000008 -0.00000012   0.98764647 -0.08821120
7.742500e+08   0.98761273 -0.08833425  -0.00000008 -0.00000012  -0.00000008 -0.00000012   0.98761273 -0.08833425
7.743750e+08   0.98757885 -0.08845761  -0.00000008 -0.00000012  -0.00000008 -0.00000012   0.98757885 -0.08845761
7.745000e+08   0.98754484 -0.08858126  -0.00000008 -0.00000012  -0.00000008 -0.00000012   0.98754484 -0.08858126
7.746250e+08   0.98751070 -0.08870522  -0.00000008 -0.00000013  -0.00000008 -0.00000013   0.98751070 -0.08870522
7.747500e+08   0.98747642 -0.08882948  -0.00000008 -0.00000013  -0.00000008 -0.00000013   0.98747642 -0.08882948
7.748750e+08   0.98744200 -0.08895403  -0.00000008 -0.00000013  -0.00000008 -0.00000013   0.98744200 -0.08895403
7.750000e+08   0.98740745 -0.08907890  -0.00000008 -0.00000013  -0.00000008 -0.00000013   0.98740745 -0.08907890
7.751250e+08   0.98737275 -0.08920406  -0.00000008 -0.00000013  -0.00000008 -0.00000013   0.98737275 -0.08920406
7.752500e+08   0.98733792 -0.08932953  -0.00000008 -0.00000013  -0.00000008 -0.00000013   0.98733792 -0.08932953
7.753750e+08   0.98730295 -0.08945531  -0.00000008 -0.00000013  -0.00000008 -0.00000013   0.98730295 -0.08945531
7.755000e+08   0.98726784 -0.08958140  -0.00000008 -0.00000013  -0.00000008 -0.00000013   0.98726784 -0.08958140
7.756250e+08   0.98723258 -0.08970780  -0.00000008 -0.00000013  -0.00000008 -0.00000013   0.98723258 -0.08970780
7.757500e+08   0.98719719 -0.08983450  -0.00000009 -0.00000013  -0.00000009 -0.00000013   0.98719719 -0.08983450
7.758750e+08   0.98716165 -0.08996152  -0.00000009 -0.00000013  -0.00000009 -0.00000013   0.98716165 -0.08996152
7.760000e+08   0.98712596 -0.09008885  -0.00000009 -0.00000013  -0.00000009 -0.00000013   0.98712596 -0.09008885
7.761250e+08   0.98709014 -0.09021650  -0.00000009 -0.00000014  -0.00000009 -0.00000014   0.98709014 -0.09021650
7.762500e+08   0.98705416 -0.09034446  -0.00000009 -0.00000014  -0.00000009 -0.00000014   0.98705416 -0.09034446
7.763750e+08   0.98701804 -0.09047273  -0.00000009 -0.00000014  -0.00000009 -0.00000014   0.98701804 -0.09047273
7.765000e+08   0.98698178 -0.09060132  -0.00000009 -0.00000014  -0.00000009 -0.00000014   0.98698178 -0.09060132
7.766250e+08   0.98694537 -0.09073024  -0.00000009 -0.00000014  -0.00000009 -0.00000014   0.98694537 -0.09073024
7.767500e+08   0.98690880 -0.09085947  -0.00000009 -0.00000014  -0.00000009 -0.00000014   0.98690880 -0.09085947
7.768750e+08   0.98687209 -0.09098902  -0.00000009 -0.00000014  -0.00000009 -0.00000014   0.98687209 -0.09098902
7.770000e+08   0.98683523 -0.09111890  -0.00000009 -0.00000014  -0.00000009 -0.00000014   0.98683523 -0.09111890
7.771250e+08   0.98679822 -0.09124909  -0.00000009 -0.00000014  -0.00000009 -0.00000014   0.98679822 -0.09124909
7.772500e+08   0.98676106 -0.09137962  -0.00000009 -0.00000014  -0.00000009 -0.00000014   0.98676106 -0.09137962
7.773750e+08   0.98672375 -0.09151047  -0.00000010 -0.00000015  -0.00000010 -0.00000015   0.98672375 -0.09151047
7.775000e+08   0.98668628 -0.09164164  -0.00000010 -0.00000015  -0.00000010 -0.00000015   0.98668628 -0.09164164
7.776250e+08   0.98664866 -0.09177315  -0.00000010 -0.00000015  -0.00000010 -0.00000015   0.98664866 -0.09177315
7.777500e+08   0.98661088 -0.09190498  -0.00000010 -0.00000015  -0.00000010 -0.00000015   0.98661088 -0.09190498
7.778750e+08   0.98657295 -0.09203715  -0.00000010 -0.00000015  -0.00000010 -0.00000015   0.98657295 -0.09203715
7.780000e+08   0.98653486 -0.09216964  -0.00000010 -0.00000015  -0.00000010 -0.00000015   0.98653486 -0.09216964
7.781250e+08   0.98649661 -0.09230247  -0.00000010 -0.00000015  -0.00000010 -0.00000015   0.98649661 -0.09230247
7.782500e+08   0.98645821 -0.09243564  -0.00000010 -0.00000015  -0.00000010 -0.00000015   0.98645821 -0.09243564
7.783750e+08   0.98641964 -0.09256914  -0.00000010 -0.00000015  -0.00000010 -0.00000015   0.98641964 -0.09256914
7.785000e+08   0.98638092 -0.09270298  -0.00000010 -0.00000015  -0.00000010 -0.00000015   0.98638092 -0.09270298
7.786250e+08   0.98634204 -0.09283716  -0.00000010 -0.00000016  -0.00000010 -0.00000016   0.98634204 -0.09283716
7.787500e+08   0.98630299 -0.09297168  -0.00000011 -0.00000016  -0.00000011 -0.00000016   0.98630299 -0.09297168
7.788750e+08   0.98626378 -0.09310653  -0.00000011 -0.00000016  -0.00000011 -0.00000016   0.98626378 -0.09310653
7.790000e+08   0.98622441 -0.09324174  -0.00000011 -0.00000016  -0.00000011 -0.00000016   0.98622441 -0.09324174
7.791250e+08   0.98618487 -0.09337728  -0.00000011 -0.00000016  -0.00000011 -0.00000016   0.98618487 -0.09337728
7.792500e+08   0.98614517 -0.09351317  -0.00000011 -0.00000016  -0.00000011 -0.00000016   0.98614517 -0.09351317
7.793750e+08   0.98610530 -0.09364941  -0.00000011 -0.00000016  -0.00000011 -0.00000016   0.98610530 -0.09364941
7.795000e+08   0.98606527 -0.09378599  -0.00000011 -0.00000016  -0.00000011 -0.00000016   0.98606527 -0.09378599
7.796250e+08   0.98602506 -0.09392293  -0.00000011 -0.00000016  -0.00000011 -0.00000016   0.98602506 -0.09392293
7.797500e+08   0.98598469 -0.09406021  -0.00000011 -0.00000017  -0.00000011 -0.00000017   0.98598469 -0.09406021
7.798750e+08   0.98594415 -0.09419785  -0.00000011 -0.00000017  -0.00000011 -0.00000017   0.98594415 -0.09419785
7.800000e+08   0.98590343 -0.09433584  -0.00000011 -0.00000017  -0.00000011 -0.00000017   0.98590343 -0.09433584
7.801250e+08   0.98586255 -0.09447418  -0.00000012 -0.00000017  -0.00000012 -0.00000017   0.98586255 -0.09447418
7.802500e+08   0.98582149 -0.09461288  -0.00000012 -0.00000017  -0.00000012 -0.00000017   0.98582149 -0.09461288
7.803750e+08   0.98578026 -0.09475194  -0.00000012 -0.00000017  -0.00000012 -0.00000017   0.98578026 -0.09475194
7.805000e+08   0.98573885 -0.09489135  -0.00000012 -0.00000017  -0.00000012 -0.00000017   0.98573885 -0.09489135
7.806250e+08   0.98569727 -0.09503113  -0.00000012 -0.00000017  -0.00000012 -0.00000017   0.98569727 -0.09503113
7.807500e+08   0.98565551 -0.09517127  -0.00000012 -0.00000018  -0.00000012 -0.00000018   0.98565551 -0.09517127
7.808750e+08   0.98561358 -0.09531177  -0.00000012 -0.00000018  -0.00000012 -0.00000018   0.98561358 -0.09531177
7.810000e+08   0.98557146 -0.09545264  -0.00000012 -0.00000018  -0.00000012 -0.00000018   0.98557146 -0.09545264
7.811250e+08   0.98552917 -0.09559387  -0.00000012 -0.00000018  -0.00000012 -0.00000018   0.98552917 -0.09559387
7.812500e+08   0.98548669 -0.09573547  -0.00000013 -0.00000018  -0.00000013 -0.00000018   0.98548669 -0.09573547
7.813750e+08   0.98544403 -0.09587744  -0.00000013 -0.00000018  -0.00000013 -0.00000018   0.98544403 -0.09587744
7.815000e+08   0.98540119 -0.09601978  -0.00000013 -0.00000018  -0.00000013 -0.00000018   0.98540119 -0.09601978
7.816250e+08   0.98535817 -0.09616249  -0.00000013 -0.00000018  -0.00000013 -0.00000018   0.98535817 -0.09616249
7.817500e+08   0.98531496 -0.09630557  -0.00000013 -0.00000019  -0.00000013 -0.00000019   0.98531496 -0.09630557
7.818750e+08   0.98527157 -0.09644903  -0.00000013 -0.00000019  -0.00000013 -0.00000019   0.98527157 -0.09644903
7.820000e+08   0.98522799 -0.09659286  -0.00000013 -0.00000019  -0.00000013 -0.00000019   0.98522799 -0.09659286
7.821250e+08   0.98518422 -0.09673708  -0.00000013 -0.00000019  -0.00000013 -0.00000019   0.98518422 -0.09673708
7.822500e+08   0.98514026 -0.09688167  -0.00000013 -0.00000019  -0.00000013 -0.00000019   0.98514026 -0.09688167
7.823750e+08   0.98509611 -0.09702664  -0.00000014 -0.00000019  -0.00000014 -0.00000019   0.98509611 -0.09702664
7.825000e+08   0.98505177 -0.09717199  -0.00000014 -0.00000019  -0.00000014 -0.00000019   0.98505177 -0.09717199
7.826250e+08   0.98500724 -0.09731773  -0.00000014 -0.00000019  -0.00000014 -0.00000019   0.98500724 -0.09731773
7.827500e+08   0.98496251 -0.09746385  -0.00000014 -0.00000020  -0.00000014 -0.00000020   0.98496251 -0.09746385
7.828750e+08   0.98491759 -0.09761036  -0.00000014 -0.00000020  -0.00000014 -0.00000020   0.98491759 -0.09761036
7.830000e+08   0.98487248 -0.09775726  -0.00000014 -0.00000020  -0.00000014 -0.00000020   0.98487248 -0.09775726
7.831250e+08   0.98482717 -0.09790455  -0.00000014 -0.00000020  -0.00000014 -0.00000020   0.98482717 -0.09790455
7.832500e+08   0.98478166 -0.09805223  -0.00000014 -0.00000020  -0.00000014 -0.00000020   0.98478166 -0.09805223
7.833750e+08   0.98473595 -0.09820030  -0.00000015 -0.00000020  -0.00000015 -0.00000020   0.98473595 -0.09820030
7.835000e+08   0.98469004 -0.09834877  -0.00000015 -0.00000020  -0.00000015 -0.00000020   0.98469004 -0.09834877
7.836250e+08   0.98464393 -0.09849763  -0.00000015 -0.00000021  -0.00000015 -0.00000021   0.98464393 -0.09849763
7.837500e+08   0.98459762 -0.09864690  -0.00000015 -0.00000021  -0.00000015 -0.00000021   0.98459762 -0.09864690
7.838750e+08   0.98455110 -0.09879656  -0.00000015 -0.00000021  -0.00000015 -0.00000021   0.98455110 -0.09879656
7.840000e+08   0.98450438 -0.09894662  -0.00000015 -0.00000021  -0.00000015 -0.00000021   0.98450438 -0.09894662
7.841250e+08   0.98445745 -0.09909708  -0.00000015 -0.00000021  -0.00000015 -0.00000021   0.98445745 -0.09909708
7.842500e+08   0.98441032 -0.09924795  -0.00000016 -0.00000021  -0.00000016 -0.00000021   0.98441032 -0.09924795
7.843750e+08   0.98436297 -0.09939922  -0.00000016 -0.00000022  -0.00000016 -0.00000022   0.98436297 -0.09939922
7.845000e+08   0.98431542 -0.09955091  -0.00000016 -0.00000022  -0.00000016 -0.00000022   0.98431542 -0.09955091
7.846250e+08   0.98426766 -0.09970300  -0.00000016 -0.00000022  -0.00000016 -0.00000022   0.98426766 -0.09970300
7.847500e+08   0.98421968 -0.09985550  -0.00000016 -0.00000022  -0.00000016 -0.00000022   0.98421968 -0.09985550
7.848750e+08   0.98417149 -0.10000841  -0.00000016 -0.00000022  -0.00000016 -0.00000022   0.98417149 -0.10000841
7.850000e+08   0.98412309 -0.10016174  -0.00000016 -0.00000022  -0.00000016 -0.00000022   0.98412309 -0.10016174
7.851250e+08   0.98407447 -0.10031549  -0.00000017 -0.00000022  -0.00000017 -0.00000022   0.98407447 -0.10031549
7.852500e+08   0.98402563 -0.10046965  -0.00000017 -0.00000023  -0.00000017 -0.00000023   0.98402563 -0.10046965
7.853750e+08   0.98397658 -0.10062423  -0.00000017 -0.00000023  -0.00000017 -0.00000023   0.98397658 -0.10062423
7.855000e+08   0.98392731 -0.10077923  -0.00000017 -0.00000023  -0.00000017 -0.00000023   0.98392731 -0.10077923
7.856250e+08   0.98387781 -0.10093466  -0.00000017 -0.00000023  -0.00000017 -0.00000023   0.98387781 -0.10093466
7.857500e+08   0.98382809 -0.10109051  -0.00000017 -0.00000023  -0.00000017 -0.00000023   0.98382809 -0.10109051
7.858750e+08   0.98377815 -0.10124678  -0.00000017 -0.00000023  -0.00000017 -0.00000023   0.98377815 -0.10124678
7.860000e+08   0.98372799 -0.10140349  -0.00000018 -0.00000024  -0.00000018 -0.00000024   0.98372799 -0.10140349
7.861250e+08   0.98367759 -0.10156062  -0.00000018 -0.00000024  -0.00000018 -0.00000024   0.98367759 -0.10156062
7.862500e+08   0.98362697 -0.10171819  -0.00000018 -0.00000024  -0.00000018 -0.00000024   0.98362697 -0.10171819
7.863750e+08   0.98357612 -0.10187618  -0.00000018 -0.00000024  -0.00000018 -0.00000024   0.98357612 -0.10187618
7.865000e+08   0.98352504 -0.10203462  -0.00000018 -0.00000024  -0.00000018 -0.00000024   0.98352504 -0.10203462
7.866250e+08   0.98347373 -0.10219349  -0.00000018 -0.00000025  -0.00000018 -0.00000025   0.98347373 -0.10219349
7.867500e+08   0.98342219 -0.10235280  -0.00000019 -0.00000025  -0.00000019 -0.00000025   0.98342219 -0.10235280
7.868750e+08   0.98337041 -0.10251255  -0.00000019 -0.00000025  -0.00000019 -0.00000025   0.98337041 -0.10251255
7.870000e+08   0.98331840 -0.10267274  -0.00000019 -0.00000025  -0.00000019 -0.00000025   0.98331840 -0.10267274
7.871250e+08   0.98326614 -0.10283337  -0.00000019 -0.00000025  -0.00000019 -0.00000025   0.98326614 -0.10283337
7.872500e+08   0.98321365 -0.10299445  -0.00000019 -0.00000025  -0.00000019 -0.00000025   0.98321365 -0.10299445
7.873750e+08   0.98316092 -0.10315598  -0.00000020 -0.00000026  -0.00000020 -0.00000026   0.98316092 -0.10315598
7.875000e+08   0.98310795 -0.10331796  -0.00000020 -0.00000026  -0.00000020 -0.00000026   0.98310795 -0.10331796
7.876250e+08   0.98305474 -0.10348039  -0.00000020 -0.00000026  -0.00000020 -0.00000026   0.98305474 -0.10348039
7.877500e+08   0.98300128 -0.10364328  -0.00000020 -0.00000026  -0.00000020 -0.00000026   0.98300128 -0.10364328
7.878750e+08   0.98294757 -0.10380662  -0.00000020 -0.00000026  -0.00000020 -0.00000026   0.98294757 -0.10380662
7.880000e+08   0.98289362 -0.10397042  -0.00000020 -0.00000027  -0.00000020 -0.00000027   0.98289362 -0.10397042
7.881250e+08   0.98283941 -0.10413467  -0.00000021 -0.00000027  -0.00000021 -0.00000027   0.98283941 -0.10413467
7.882500e+08   0.98278496 -0.10429939  -0.00000021 -0.00000027  -0.00000021 -0.00000027   0.98278496 -0.10429939
7.883750e+08   0.98273025 -0.10446457  -0.00000021 -0.00000027  -0.00000021 -0.00000027   0.98273025 -0.10446457
7.885000e+08   0.98267530 -0.10463021  -0.00000021 -0.00000027  -0.00000021 -0.00000027   0.98267530 -0.10463021
7.886250e+08   0.98262008 -0.10479633  -0.00000021 -0.00000028  -0.00000021 -0.00000028   0.98262008 -0.10479633
7.887500e+08   0.98256461 -0.10496291  -0.00000022 -0.00000028  -0.00000022 -0.00000028   0.98256461 -0.10496291
7.888750e+08   0.98250888 -0.10512996  -0.00000022 -0.00000028  -0.00000022 -0.00000028   0.98250888 -0.10512996
7.890000e+08   0.98245289 -0.10529748  -0.00000022 -0.00000028  -0.00000022 -0.00000028   0.98245289 -0.10529748
7.891250e+08   0.98239664 -0.10546548  -0.00000022 -0.00000028  -0.00000022 -0.00000028   0.98239664 -0.10546548
7.892500e+08   0.98234013 -0.10563396  -0.00000023 -0.00000029  -0.00000023 -0.00000029   0.98234013 -0.10563396
7.893750e+08   0.98228335 -0.10580292  -0.00000023 -0.00000029  -0.00000023 -0.00000029   0.98228335 -0.10580292
7.895000e+08   0.98222631 -0.10597235  -0.00000023 -0.00000029  -0.00000023 -0.00000029   0.98222631 -0.10597235
7.896250e+08   0.98216899 -0.10614227  -0.00000023 -0.00000029  -0.00000023 -0.00000029   0.98216899 -0.10614227
7.897500e+08   0.98211141 -0.10631268  -0.00000023 -0.00000029  -0.00000023 -0.00000029   0.98211141 -0.10631268
7.898750e+08   0.98205356 -0.10648357  -0.00000024 -0.00000030  -0.00000024 -0.00000030   0.98205356 -0.10648357
7.900000e+08   0.98199543 -0.10665495  -0.00000024 -0.00000030  -0.00000024 -0.00000030   0.98199543 -0.10665495
7.901250e+08   0.98193703 -0.10682682  -0.00000024 -0.00000030  -0.00000024 -0.00000030   0.98193703 -0.10682682
7.902500e+08   0.98187835 -0.10699919  -0.00000024 -0.00000030  -0.00000024 -0.00000030   0.98187835 -0.10699919
7.903750e+08   0.98181940 -0.10717205  -0.00000025 -0.00000031  -0.00000025 -0.00000031   0.98181940 -0.10717205
7.905000e+08   0.98176016 -0.10734541  -0.00000025 -0.00000031  -0.00000025 -0.00000031   0.98176016 -0.10734541
7.906250e+08   0.98170064 -0.10751927  -0.00000025 -0.00000031  -0.00000025 -0.00000031   0.98170064 -0.10751927
7.907500e+08   0.98164084 -0.10769363  -0.00000025 -0.00000031  -0.00000025 -0.00000031   0.98164084 -0.10769363
7.908750e+08   0.98158076 -0.10786849  -0.00000026 -0.00000032  -0.00000026 -0.00000032   0.98158076 -0.10786849
7.910000e+08   0.98152038 -0.10804386  -0.00000026 -0.00000032  -0.00000026 -0.00000032   0.98152038 -0.10804386
7.911250e+08   0.98145972 -0.10821974  -0.00000026 -0.00000032  -0.00000026 -0.00000032   0.98145972 -0.10821974
7.912500e+08   0.98139877 -0.10839613  -0.00000026 -0.00000032  -0.00000026 -0.00000032   0.98139877 -0.10839613
7.913750e+08   0.98133753 -0.10857303  -0.00000027 -0.00000032  -0.00000027 -0.00000032   0.98133753 -0.10857303
7.915000e+08   0.98127599 -0.10875045  -0.00000027 -0.00000033  -0.00000027 -0.00000033   0.98127599 -0.10875045
7.916250e+08   0.98121415 -0.10892838  -0.00000027 -0.00000033  -0.00000027 -0.00000033   0.98121415 -0.10892838
7.917500e+08   0.98115202 -0.10910684  -0.00000027 -0.00000033  -0.00000027 -0.00000033   0.98115202 -0.10910684
7.918750e+08   0.98108959 -0.10928581  -0.00000028 -0.00000033  -0.00000028 -0.00000033   0.98108959 -0.10928581
7.920000e+08   0.98102685 -0.10946531  -0.00000028 -0.00000034  -0.00000028 -0.00000034   0.98102685 -0.10946531
7.921250e+08   0.98096381 -0.10964534  -0.00000028 -0.00000034  -0.00000028 -0.00000034   0.98096381 -0.10964534
7.922500e+08   0.98090047 -0.10982590  -0.00000028 -0.00000034  -0.00000028 -0.00000034   0.98090047 -0.10982590
7.923750e+08   0.98083682 -0.11000698  -0.00000029 -0.00000035  -0.00000029 -0.00000035   0.98083682 -0.11000698
7.925000e+08   0.98077286 -0.11018860  -0.00000029 -0.00000035  -0.00000029 -0.00000035   0.98077286 -0.11018860
7.926250e+08   0.98070858 -0.11037075  -0.00000029 -0.00000035  -0.00000029 -0.00000035   0.98070858 -0.11037075
7.927500e+08   0.98064400 -0.11055345  -0.00000030 -0.00000035  -0.00000030 -0.00000035   0.98064400 -0.11055345
7.928750e+08   0.98057909 -0.11073668  -0.00000030 -0.00000036  -0.00000030 -0.00000036   0.98057909 -0.11073668
7.930000e+08   0.98051387 -0.11092045  -0.00000030 -0.00000036  -0.00000030 -0.00000036   0.98051387 -0.11092045
7.931250e+08   0.98044833 -0.11110477  -0.00000031 -0.00000036  -0.00000031 -0.00000036   0.98044833 -0.11110477
7.932500e+08   0.98038247 -0.11128964  -0.00000031 -0.00000036  -0.00000031 -0.00000036   0.98038247 -0.11128964
7.933750e+08   0.98031629 -0.11147506  -0.00000031 -0.00000037  -0.00000031 -0.00000037   0.98031629 -0.11147506
7.935000e+08   0.98024978 -0.11166103  -0.00000031 -0.00000037  -0.00000031 -0.00000037   0.98024978 -0.11166103
7.936250e+08   0.98018294 -0.11184755  -0.00000032 -0.00000037  -0.00000032 -0.00000037   0.98018294 -0.11184755
7.937500e+08   0.98011577 -0.11203463  -0.00000032 -0.00000038  -0.00000032 -0.00000038   0.98011577 -0.11203463
7.938750e+08   0.98004827 -0.11222227  -0.00000032 -0.00000038  -0.00000032 -0.00000038   0.98004827 -0.11222227
7.940000e+08   0.97998043 -0.11241047  -0.00000033 -0.00000038  -0.00000033 -0.00000038   0.97998043 -0.11241047
7.941250e+08   0.97991226 -0.11259924  -0.00000033 -0.00000038  -0.00000033 -0.00000038   0.97991226 -0.11259924
7.942500e+08   0.97984375 -0.11278857  -0.00000033 -0.00000039  -0.00000033 -0.00000039   0.97984375 -0.11278857
7.943750e+08   0.97977489 -0.11297848  -0.00000034 -0.00000039  -0.00000034 -0.00000039   0.97977489 -0.11297848
7.945000e+08   0.97970570 -0.11316895  -0.00000034 -0.00000039  -0.00000034 -0.00000039   0.97970570 -0.11316895
7.946250e+08   0.97963616 -0.11336000  -0.00000034 -0.00000040  -0.00000034 -0.00000040   0.97963616 -0.11336000
7.947500e+08   0.97956627 -0.11355163  -0.00000035 -0.00000040  -0.00000035 -0.00000040   0.97956627 -0.11355163
7.948750e+08   0.97949603 -0.11374384  -0.00000035 -0.00000040  -0.00000035 -0.00000040   0.97949603 -0.11374384
7.950000e+08   0.97942544 -0.11393662  -0.00000036 -0.00000041  -0.00000036 -0.00000041   0.97942544 -0.11393662
7.951250e+08   0.97935449 -0.11413000  -0.00000036 -0.00000041  -0.00000036 -0.00000041   0.97935449 -0.11413000
7.952500e+08   0.97928319 -0.11432396  -0.00000036 -0.00000041  -0.00000036 -0.00000041   0.97928319 -0.11432396
7.953750e+08   0.97921152 -0.11451851  -0.00000037 -0.00000042  -0.00000037 -0.00000042   0.97921152 -0.11451851
7.955000e+08   0.97913950 -0.11471366  -0.00000037 -0.00000042  -0.00000037 -0.00000042   0.97913950 -0.11471366
7.956250e+08   0.97906711 -0.11490939  -0.00000037 -0.00000042  -0.00000037 -0.00000042   0.97906711 -0.11490939
7.957500e+08   0.97899435 -0.11510573  -0.00000038 -0.00000043  -0.00000038 -0.00000043   0.97899435 -0.11510573
7.958750e+08   0.97892123 -0.11530267  -0.00000038 -0.00000043  -0.00000038 -0.00000043   0.97892123 -0.11530267
7.960000e+08   0.97884773 -0.11550021  -0.00000039 -0.00000043  -0.00000039 -0.00000043   0.97884773 -0.11550021
7.961250e+08   0.97877386 -0.11569836  -0.00000039 -0.00000044  -0.00000039 -0.00000044   0.97877386 -0.11569836
7.962500e+08   0.97869961 -0.11589712  -0.00000039 -0.00000044  -0.00000039 -0.00000044   0.97869961 -0.11589712
7.963750e+08   0.97862499 -0.11609649  -0.00000040 -0.00000044  -0.00000040 -0.00000044   0.97862499 -0.11609649
7.965000e+08   0.97854998 -0.11629647  -0.00000040 -0.00000045  -0.00000040 -0.00000045   0.97854998 -0.11629647
7.966250e+08   0.97847458 -0.11649707  -0.00000041 -0.00000045  -0.00000041 -0.00000045   0.97847458 -0.11649707
7.967500e+08   0.97839881 -0.11669829  -0.00000041 -0.00000045  -0.00000041 -0.00000045   0.97839881 -0.11669829
7.968750e+08   0.97832264 -0.11690014  -0.00000041 -0.00000046  -0.00000041 -0.00000046   0.97832264 -0.11690014
7.970000e+08   0.97824608 -0.11710261  -0.00000042 -0.00000046  -0.00000042 -0.00000046   0.97824608 -0.11710261
7.971250e+08   0.97816912 -0.11730570  -0.00000042 -0.00000046  -0.00000042 -0.00000046   0.97816912 -0.11730570
7.972500e+08   0.97809177 -0.11750943  -0.00000043 -0.00000047  -0.00000043 -0.00000047   0.97809177 -0.11750943
7.973750e+08   0.97801401 -0.11771380  -0.00000043 -0.00000047  -0.00000043 -0.00000047   0.97801401 -0.11771380
7.975000e+08   0.97793586 -0.11791880  -0.00000044 -0.00000047  -0.00000044 -0.00000047   0.97793586 -0.11791880
7.976250e+08   0.97785730 -0.11812444  -0.00000044 -0.00000048  -0.00000044 -0.00000048   0.97785730 -0.11812444
7.977500e+08   0.97777833 -0.11833072  -0.00000045 -0.00000048  -0.00000045 -0.00000048   0.97777833 -0.11833072
7.978750e+08   0.97769894 -0.11853765  -0.00000045 -0.00000049  -0.00000045 -0.00000049   0.97769894 -0.11853765
7.980000e+08   0.97761915 -0.11874523  -0.00000046 -0.00000049  -0.00000046 -0.00000049   0.97761915 -0.11874523
7.981250e+08   0.97753894 -0.11895346  -0.00000046 -0.00000049  -0.00000046 -0.00000049   0.97753894 -0.11895346
7.982500e+08   0.97745830 -0.11916235  -0.00000047 -0.00000050  -0.00000047 -0.00000050   0.97745830 -0.11916235
7.983750e+08   0.97737725 -0.11937189  -0.00000047 -0.00000050  -0.00000047 -0.00000050   0.97737725 -0.11937189
7.985000e+08   0.97729577 -0.11958210  -0.00000048 -0.00000051  -0.00000048 -0.00000051   0.97729577 -0.11958210
7.986250e+08   0.97721386 -0.11979297  -0.00000048 -0.00000051  -0.00000048 -0.00000051   0.97721386 -0.11979297
7.987500e+08   0.97713152 -0.12000450  -0.00000049 -0.00000051  -0.00000049 -0.00000051   0.97713152 -0.12000450
7.988750e+08   0.97704875 -0.12021671  -0.00000049 -0.00000052  -0.00000049 -0.00000052   0.97704875 -0.12021671
7.990000e+08   0.97696554 -0.12042959  -0.00000050 -0.00000052  -0.00000050 -0.00000052   0.97696554 -0.12042959
7.991250e+08   0.97688189 -0.12064314  -0.00000050 -0.00000053  -0.00000050 -0.00000053   0.97688189 -0.12064314
7.992500e+08   0.97679779 -0.12085738  -0.00000051 -0.00000053  -0.00000051 -0.00000053   0.97679779 -0.12085738
7.993750e+08   0.97671325 -0.12107230  -0.00000051 -0.00000053  -0.00000051 -0.00000053   0.97671325 -0.12107230
7.995000e+08   0.97662826 -0.12128790  -0.00000052 -0.00000054  -0.00000052 -0.00000054   0.97662826 -0.12128790
7.996250e+08   0.97654281 -0.12150419  -0.00000052 -0.00000054  -0.00000052 -0.00000054   0.97654281 -0.12150419
7.997500e+08   0.97645691 -0.12172118  -0.00000053 -0.00000055  -0.00000053 -0.00000055   0.97645691 -0.12172118
7.998750e+08   0.97637055 -0.12193886  -0.00000054 -0.00000055  -0.00000054 -0.00000055   0.97637055 -0.12193886
8.000000e+08   0.97628373 -0.12215724  -0.00000054 -0.00000056  -0.00000054 -0.00000056   0.97628373 -0.12215724
8.001250e+08   0.97619644 -0.12237632  -0.00000055 -0.00000056  -0.00000055 -0.00000056   0.97619644 -0.12237632
8.002500e+08   0.97610868 -0.12259610  -0.00000055 -0.00000057  -0.00000055 -0.00000057   0.97610868 -0.12259610
8.003750e+08   0.97602045 -0.12281660  -0.00000056 -0.00000057  -0.00000056 -0.00000057   0.97602045 -0.12281660
8.005000e+08   0.97593175 -0.12303781  -0.00000057 -0.00000057  -0.00000057 -0.00000057   0.97593175 -0.12303781
8.006250e+08   0.97584257 -0.12325973  -0.00000057 -0.00000058  -0.00000057 -0.00000058   0.97584257 -0.12325973
8.007500e+08   0.97575290 -0.12348237  -0.00000058 -0.00000058  -0.00000058 -0.00000058   0.97575290 -0.12348237
8.008750e+08   0.97566275 -0.12370573  -0.00000058 -0.00000059  -0.00000058 -0.00000059   0.97566275 -0.12370573
8.010000e+08   0.97557210 -0.12392982  -0.00000059 -0.00000059  -0.00000059 -0.00000059   0.97557210 -0.12392982
8.011250e+08   0.97548097 -0.12415463  -0.00000060 -0.00000060  -0.00000060 -0.00000060   0.97548097 -0.12415463
8.012500e+08   0.97538934 -0.12438018  -0.00000060 -0.00000060  -0.00000060 -0.00000060   0.97538934 -0.12438018
8.013750e+08   0.97529721 -0.12460647  -0.00000061 -0.00000061  -0.00000061 -0.00000061   0.97529721 -0.12460647
8.015000e+08   0.97520457 -0.12483349  -0.00000062 -0.00000061  -0.00000062 -0.00000061   0.97520457 -0.12483349
8.016250e+08   0.97511143 -0.12506126  -0.00000062 -0.00000062  -0.00000062 -0.00000062   0.97511143 -0.12506126
8.017500e+08   0.97501778 -0.12528977  -0.00000063 -0.00000062  -0.00000063 -0.00000062   0.97501778 -0.12528977
8.018750e+08   0.97492361 -0.12551903  -0.00000064 -0.00000063  -0.00000064 -0.00000063   0.97492361 -0.12551903
8.020000e+08   0.97482893 -0.12574905  -0.00000065 -0.00000063  -0.00000065 -0.00000063   0.97482893 -0.12574905
8.021250e+08   0.97473372 -0.12597982  -0.00000065 -0.00000064  -0.00000065 -0.00000064   0.97473372 -0.12597982
8.022500e+08   0.97463799 -0.12621135  -0.00000066 -0.00000064  -0.00000066 -0.00000064   0.97463799 -0.12621135
8.023750e+08   0.97454173 -0.12644365  -0.00000067 -0.00000065  -0.00000067 -0.00000065   0.97454173 -0.12644365
8.025000e+08   0.97444493 -0.12667671  -0.00000067 -0.00000065  -0.00000067 -0.00000065   0.97444493 -0.12667671
8.026250e+08   0.97434760 -0.12691055  -0.00000068 -0.00000066  -0.00000068 -0.00000066   0.97434760 -0.12691055
8.027500e+08   0.97424973 -0.12714516  -0.00000069 -0.00000066  -0.00000069 -0.00000066   0.97424973 -0.12714516
8.028750e+08   0.97415131 -0.12738055  -0.00000070 -0.00000067  -0.00000070 -0.00000067   0.97415131 -0.12738055
8.030000e+08   0.97405234 -0.12761672  -0.00000071 -0.00000068  -0.00000071 -0.00000068   0.97405234 -0.12761672
8.031250e+08   0.97395282 -0.12785368  -0.00000071 -0.00000068  -0.00000071 -0.00000068   0.97395282 -0.12785368
8.032500e+08   0.97385274 -0.12809142  -0.00000072 -0.00000069  -0.00000072 -0.00000069   0.97385274 -0.12809142
8.033750e+08   0.97375210 -0.12832997  -0.00000073 -0.00000069  -0.00000073 -0.00000069   0.97375210 -0.12832997
8.035000e+08   0.97365090 -0.12856931  -0.00000074 -0.00000070  -0.00000074 -0.00000070   0.97365090 -0.12856931
8.036250e+08   0.97354912 -0.12880945  -0.00000075 -0.00000070  -0.00000075 -0.00000070   0.97354912 -0.12880945
8.037500e+08   0.97344677 -0.12905039  -0.00000075 -0.00000071  -0.00000075 -0.00000071   0.97344677 -0.12905039
8.038750e+08   0.97334385 -0.12929215  -0.00000076 -0.00000071  -0.00000076 -0.00000071   0.97334385 -0.12929215
8.040000e+08   0.97324034 -0.12953472  -0.00000077 -0.00000072  -0.00000077 -0.00000072   0.97324034 -0.12953472
8.041250e+08   0.97313624 -0.12977810  -0.00000078 -0.00000073  -0.00000078 -0.00000073   0.97313624 -0.12977810
8.042500e+08   0.97303156 -0.13002231  -0.00000079 -0.00000073  -0.00000079 -0.00000073   0.97303156 -0.13002231
8.043750e+08   0.97292628 -0.13026734  -0.00000080 -0.00000074  -0.00000080 -0.00000074   0.97292628 -0.13026734
8.045000e+08   0.97282039 -0.13051320  -0.00000081 -0.00000074  -0.00000081 -0.00000074   0.97282039 -0.13051320
8.046250e+08   0.97271391 -0.13075989  -0.00000082 -0.00000075  -0.00000082 -0.00000075   0.97271391 -0.13075989
8.047500e+08   0.97260681 -0.13100742  -0.00000083 -0.00000076  -0.00000083 -0.00000076   0.97260681 -0.13100742
8.048750e+08   0.97249911 -0.13125579  -0.00000084 -0.00000076  -0.00000084 -0.00000076   0.97249911 -0.13125579
8.050000e+08   0.97239078 -0.13150501  -0.00000085 -0.00000077  -0.00000085 -0.00000077   0.97239078 -0.13150501
8.051250e+08   0.97228183 -0.13175507  -0.00000086 -0.00000078  -0.00000086 -0.00000078   0.97228183 -0.13175507
8.052500e+08   0.97217225 -0.13200599  -0.00000087 -0.00000078  -0.00000087 -0.00000078   0.97217225 -0.13200599
8.053750e+08   0.97206204 -0.13225777  -0.00000088 -0.00000079  -0.00000088 -0.00000079   0.97206204 -0.13225777
8.055000e+08   0.97195120 -0.13251041  -0.00000089 -0.00000080  -0.00000089 -0.00000080   0.97195120 -0.13251041
8.056250e+08   0.97183971 -0.13276391  -0.00000090 -0.00000080  -0.00000090 -0.00000080   0.97183971 -0.13276391
8.057500e+08   0.97172758 -0.13301829  -0.00000091 -0.00000081  -0.00000091 -0.00000081   0.97172758 -0.13301829
8.058750e+08   0.97161479 -0.13327353  -0.00000092 -0.00000082  -0.00000092 -0.00000082   0.97161479 -0.13327353
8.060000e+08   0.97150135 -0.13352966  -0.00000093 -0.00000082  -0.00000093 -0.00000082   0.97150135 -0.13352966
8.061250e+08   0.97138724 -0.13378667  -0.00000094 -0.00000083  -0.00000094 -0.00000083   0.97138724 -0.13378667
8.062500e+08   0.97127247 -0.13404457  -0.00000095 -0.00000084  -0.00000095 -0.00000084   0.97127247 -0.13404457
8.063750e+08   0.97115703 -0.13430336  -0.00000096 -0.00000084  -0.00000096 -0.00000084   0.97115703 -0.13430336
8.065000e+08   0.97104091 -0.13456305  -0.00000097 -0.00000085  -0.00000097 -0.00000085   0.97104091 -0.13456305
8.066250e+08   0.97092411 -0.13482363  -0.00000098 -0.00000086  -0.00000098 -0.00000086   0.97092411 -0.13482363
8.067500e+08   0.97080662 -0.13508512  -0.00000100 -0.00000086  -0.00000100 -0.00000086   0.97080662 -0.13508512
8.068750e+08   0.97068844 -0.13534752  -0.00000101 -0.00000087  -0.00000101 -0.00000087   0.97068844 -0.13534752
8.070000e+08   0.97056956 -0.13561084  -0.00000102 -0.00000088  -0.00000102 -0.00000088   0.97056956 -0.13561084
8.071250e+08   0.97044998 -0.13587507  -0.00000103 -0.00000089  -0.00000103 -0.00000089   0.97044998 -0.13587507
8.072500e+08   0.97032968 -0.13614023  -0.00000104 -0.00000089  -0.00000104 -0.00000089   0.97032968 -0.13614023
8.073750e+08   0.97020868 -0.13640631  -0.00000106 -0.00000090  -0.00000106 -0.00000090   0.97020868 -0.13640631
8.075000e+08   0.97008695 -0.13667333  -0.00000107 -0.00000091  -0.00000107 -0.00000091   0.97008695 -0.13667333
8.076250e+08   0.96996450 -0.13694128  -0.00000108 -0.00000092  -0.00000108 -0.00000092   0.96996450 -0.13694128
8.077500e+08   0.96984132 -0.13721018  -0.00000110 -0.00000092  -0.00000110 -0.00000092   0.96984132 -0.13721018
8.078750e+08   0.96971739 -0.13748002  -0.00000111 -0.00000093  -0.00000111 -0.00000093   0.96971739 -0.13748002
8.080000e+08   0.96959273 -0.13775081  -0.00000112 -0.00000094  -0.00000112 -0.00000094   0.96959273 -0.13775081
8.081250e+08   0.96946732 -0.13802255  -0.00000114 -0.00000095  -0.00000114 -0.00000095   0.96946732 -0.13802255
8.082500e+08   0.96934115 -0.13829526  -0.00000115 -0.00000095  -0.00000115 -0.00000095   0.96934115 -0.13829526
8.083750e+08   0.96921422 -0.13856893  -0.00000116 -0.00000096  -0.00000116 -0.00000096   0.96921422 -0.13856893
8.085000e+08   0.96908653 -0.13884357  -0.00000118 -0.00000097  -0.00000118 -0.00000097   0.96908653 -0.13884357
8.086250e+08   0.96895806 -0.13911919  -0.00000119 -0.00000098  -0.00000119 -0.00000098   0.96895806 -0.13911919
8.087500e+08   0.96882882 -0.13939579  -0.00000121 -0.00000099  -0.00000121 -0.00000099   0.96882882 -0.13939579
8.088750e+08   0.96869879 -0.13967337  -0.00000122 -0.00000099  -0.00000122 -0.00000099   0.96869879 -0.13967337
8.090000e+08   0.96856797 -0.13995194  -0.00000124 -0.00000100  -0.00000124 -0.00000100   0.96856797 -0.13995194
8.091250e+08   0.96843635 -0.14023150  -0.00000125 -0.00000101  -0.00000125 -0.00000101   0.96843635 -0.14023150
8.092500e+08   0.96830393 -0.14051206  -0.00000127 -0.00000102  -0.00000127 -0.00000102   0.96830393 -0.14051206
8.093750e+08   0.96817069 -0.14079363  -0.00000128 -0.00000103  -0.00000128 -0.00000103   0.96817069 -0.14079363
8.095000e+08   0.96803665 -0.14107621  -0.00000130 -0.00000104  -0.00000130 -0.00000104   0.96803665 -0.14107621
8.096250e+08   0.96790177 -0.14135980  -0.00000131 -0.00000105  -0.00000131 -0.00000105   0.96790177 -0.14135980
8.097500e+08   0.96776607 -0.14164441  -0.00000133 -0.00000105  -0.00000133 -0.00000105   0.96776607 -0.14164441
8.098750e+08   0.96762953 -0.14193005  -0.00000135 -0.00000106  -0.00000135 -0.00000106   0.96762953 -0.14193005
8.100000e+08   0.96749215 -0.14221672  -0.00000136 -0.00000107  -0.00000136 -0.00000107   0.96749215 -0.14221672
8.101250e+08   0.96735391 -0.14250442  -0.00000138 -0.00000108  -0.00000138 -0.00000108   0.96735391 -0.14250442
8.102500e+08   0.96721482 -0.14279316  -0.00000140 -0.00000109  -0.00000140 -0.00000109   0.96721482 -0.14279316
8.103750e+08   0.96707487 -0.14308294  -0.00000141 -0.00000110  -0.00000141 -0.00000110   0.96707487 -0.14308294
8.105000e+08   0.96693405 -0.14337378  -0.00000143 -0.00000111  -0.00000143 -0.00000111   0.96693405 -0.14337378
8.106250e+08   0.96679234 -0.14366568  -0.00000145 -0.00000112  -0.00000145 -0.00000112   0.96679234 -0.14366568
8.107500e+08   0.96664975 -0.14395863  -0.00000147 -0.00000113  -0.00000147 -0.00000113   0.96664975 -0.14395863
8.108750e+08   0.96650627 -0.14425265  -0.00000149 -0.00000114  -0.00000149 -0.00000114   0.96650627 -0.14425265
8.110000e+08   0.96636189 -0.14454775  -0.00000151 -0.00000115  -0.00000151 -0.00000115   0.96636189 -0.14454775
8.111250e+08   0.96621660 -0.14484392  -0.00000152 -0.00000116  -0.00000152 -0.00000116   0.96621660 -0.14484392
8.112500e+08   0.96607040 -0.14514118  -0.00000154 -0.00000116  -0.00000154 -0.00000116   0.96607040 -0.14514118
8.113750e+08   0.96592327 -0.14543952  -0.00000156 -0.00000117  -0.00000156 -0.00000117   0.96592327 -0.14543952
8.115000e+08   0.96577522 -0.14573896  -0.00000158 -0.00000118  -0.00000158 -0.00000118   0.96577522 -0.14573896
8.116250e+08   0.96562622 -0.14603949  -0.00000160 -0.00000119  -0.00000160 -0.00000119   0.96562622 -0.14603949
8.117500e+08   0.96547628 -0.14634114  -0.00000162 -0.00000120  -0.00000162 -0.00000120   0.96547628 -0.14634114
8.118750e+08   0.96532539 -0.14664389  -0.00000164 -0.00000121  -0.00000164 -0.00000121   0.96532539 -0.14664389
8.120000e+08   0.96517354 -0.14694776  -0.00000167 -0.00000122  -0.00000167 -0.00000122   0.96517354 -0.14694776
8.121250e+08   0.96502072 -0.14725275  -0.00000169 -0.00000123  -0.00000169 -0.00000123   0.96502072 -0.14725275
8.122500e+08   0.96486692 -0.14755887  -0.00000171 -0.00000124  -0.00000171 -0.00000124   0.96486692 -0.14755887
8.123750e+08   0.96471213 -0.14786613  -0.00000173 -0.00000126  -0.00000173 -0.00000126   0.96471213 -0.14786613
8.125000e+08   0.96455635 -0.14817452  -0.00000175 -0.00000127  -0.00000175 -0.00000127   0.96455635 -0.14817452
8.126250e+08   0.96439957 -0.14848406  -0.00000177 -0.00000128  -0.00000177 -0.00000128   0.96439957 -0.14848406
8.127500e+08   0.96424178 -0.14879475  -0.00000180 -0.00000129  -0.00000180 -0.00000129   0.96424178 -0.14879475
8.128750e+08   0.96408297 -0.14910660  -0.00000182 -0.00000130  -0.00000182 -0.00000130   0.96408297 -0.14910660
8.130000e+08   0.96392313 -0.14941960  -0.00000184 -0.00000131  -0.00000184 -0.00000131   0.96392313 -0.14941960
8.131250e+08   0.96376226 -0.14973378  -0.00000187 -0.00000132  -0.00000187 -0.00000132   0.96376226 -0.14973378
8.132500e+08   0.96360034 -0.15004914  -0.00000189 -0.00000133  -0.00000189 -0.00000133   0.96360034 -0.15004914
8.133750e+08   0.96343736 -0.15036567  -0.00000192 -0.00000134  -0.00000192 -0.00000134   0.96343736 -0.15036567
8.135000e+08   0.96327333 -0.15068339  -0.00000194 -0.00000135  -0.00000194 -0.00000135   0.96327333 -0.15068339
8.136250e+08   0.96310822 -0.15100231  -0.00000197 -0.00000136  -0.00000197 -0.00000136   0.96310822 -0.15100231
8.137500e+08   0.96294203 -0.15132242  -0.00000199 -0.00000137  -0.00000199 -0.00000137   0.96294203 -0.15132242
8.138750e+08   0.96277475 -0.15164374  -0.00000202 -0.00000139  -0.00000202 -0.00000139   0.96277475 -0.15164374
8.140000e+08   0.96260637 -0.15196627  -0.00000204 -0.00000140  -0.00000204 -0.00000140   0.96260637 -0.15196627
8.141250e+08   0.96243688 -0.15229001  -0.00000207 -0.00000141  -0.00000207 -0.00000141   0.96243688 -0.15229001
8.142500e+08   0.96226627 -0.15261498  -0.00000210 -0.00000142  -0.00000210 -0.00000142   0.96226627 -0.15261498
8.143750e+08   0.96209454 -0.15294118  -0.00000213 -0.00000143  -0.00000213 -0.00000143   0.96209454 -0.15294118
8.145000e+08   0.96192166 -0.15326862  -0.00000215 -0.00000144  -0.00000215 -0.00000144   0.96192166 -0.15326862
8.146250e+08   0.96174764 -0.15359730  -0.00000218 -0.00000146  -0.00000218 -0.00000146   0.96174764 -0.15359730
8.147500e+08   0.96157246 -0.15392723  -0.00000221 -0.00000147  -0.00000221 -0.00000147   0.96157246 -0.15392723
8.148750e+08   0.96139611 -0.15425841  -0.00000224 -0.00000148  -0.00000224 -0.00000148   0.96139611 -0.15425841
8.150000e+08   0.96121858 -0.15459086  -0.00000227 -0.00000149  -0.00000227 -0.00000149   0.96121858 -0.15459086
8.151250e+08   0.96103987 -0.15492458  -0.00000230 -0.00000150  -0.00000230 -0.00000150   0.96103987 -0.15492458
8.152500e+08   0.96085995 -0.15525957  -0.00000233 -0.00000152  -0.00000233 -0.00000152   0.96085995 -0.15525957
8.153750e+08   0.96067883 -0.15559584  -0.00000236 -0.00000153  -0.00000236 -0.00000153   0.96067883 -0.15559584
8.155000e+08   0.96049649 -0.15593340  -0.00000239 -0.00000154  -0.00000239 -0.00000154   0.96049649 -0.15593340
8.156250e+08   0.96031291 -0.15627225  -0.00000243 -0.00000155  -0.00000243 -0.00000155   0.96031291 -0.15627225
8.157500e+08   0.96012810 -0.15661241  -0.00000246 -0.00000157  -0.00000246 -0.00000157   0.96012810 -0.15661241
8.158750e+08   0.95994203 -0.15695387  -0.00000249 -0.00000158  -0.00000249 -0.00000158   0.95994203 -0.15695387
8.160000e+08   0.95975470 -0.15729665  -0.00000253 -0.00000159  -0.00000253 -0.00000159   0.95975470 -0.15729665
8.161250e+08   0.95956609 -0.15764075  -0.00000256 -0.00000160  -0.00000256 -0.00000160   0.95956609 -0.15764075
8.162500e+08   0.95937620 -0.15798618  -0.00000260 -0.00000162  -0.00000260 -0.00000162   0.95937620 -0.15798618
8.163750e+08   0.95918501 -0.15833294  -0.00000263 -0.00000163  -0.00000263 -0.00000163   0.95918501 -0.15833294
8.165000e+08   0.95899251 -0.15868104  -0.00000267 -0.00000164  -0.00000267 -0.00000164   0.95899251 -0.15868104
8.166250e+08   0.95879869 -0.15903050  -0.00000270 -0.00000166  -0.00000270 -0.00000166   0.95879869 -0.15903050
8.167500e+08   0.95860354 -0.15938131  -0.00000274 -0.00000167  -0.00000274 -0.00000167   0.95860354 -0.15938131
8.168750e+08   0.95840704 -0.15973348  -0.00000278 -0.00000168  -0.00000278 -0.00000168   0.95840704 -0.15973348
8.170000e+08   0.95820919 -0.16008702  -0.00000281 -0.00000170  -0.00000281 -0.00000170   0.95820919 -0.16008702
8.171250e+08   0.95800997 -0.16044194  -0.00000285 -0.00000171  -0.00000285 -0.00000171   0.95800997 -0.16044194
8.172500e+08   0.95780937 -0.16079825  -0.00000289 -0.00000172  -0.00000289 -0.00000172   0.95780937 -0.16079825
8.173750e+08   0.95760737 -0.16115594  -0.00000293 -0.00000174  -0.00000293 -0.00000174   0.95760737 -0.16115594
8.175000e+08   0.95740397 -0.16151504  -0.00000297 -0.00000175  -0.00000297 -0.00000175   0.95740397 -0.16151504
8.176250e+08   0.95719915 -0.16187553  -0.00000301 -0.00000176  -0.00000301 -0.00000176   0.95719915 -0.16187553
8.177500e+08   0.95699289 -0.16223744  -0.00000306 -0.00000178  -0.00000306 -0.00000178   0.95699289 -0.16223744
8.178750e+08   0.95678519 -0.16260077  -0.00000310 -0.00000179  -0.00000310 -0.00000179   0.95678519 -0.16260077
8.180000e+08   0.95657604 -0.16296553  -0.00000314 -0.00000181  -0.00000314 -0.00000181   0.95657604 -0.16296553
8.181250e+08   0.95636541 -0.16333172  -0.00000318 -0.00000182  -0.00000318 -0.00000182   0.95636541 -0.16333172
8.182500e+08   0.95615330 -0.16369936  -0.00000323 -0.00000183  -0.00000323 -0.00000183   0.95615330 -0.16369936
8.183750e+08   0.95593968 -0.16406844  -0.00000327 -0.00000185  -0.00000327 -0.00000185   0.95593968 -0.16406844
8.185000e+08   0.95572456 -0.16443898  -0.00000332 -0.00000186  -0.00000332 -0.00000186   0.95572456 -0.16443898
8.186250e+08   0.95550791 -0.16481098  -0.00000337 -0.00000188  -0.00000337 -0.00000188   0.95550791 -0.16481098
8.187500e+08   0.95528972 -0.16518446  -0.00000341 -0.00000189  -0.00000341 -0.00000189   0.95528972 -0.16518446
8.188750e+08   0.95506998 -0.16555941  -0.00000346 -0.00000191  -0.00000346 -0.00000191   0.95506998 -0.16555941
8.190000e+08   0.95484866 -0.16593585  -0.00000351 -0.00000192  -0.00000351 -0.00000192   0.95484866 -0.16593585
8.191250e+08   0.95462577 -0.16631379  -0.00000356 -0.00000193  -0.00000356 -0.00000193   0.95462577 -0.16631379
8.192500e+08   0.95440127 -0.16669322  -0.00000361 -0.00000195  -0.00000361 -0.00000195   0.95440127 -0.16669322
8.193750e+08   0.95417516 -0.16707417  -0.00000366 -0.00000196  -0.00000366 -0.00000196   0.95417516 -0.16707417
8.195000e+08   0.95394743 -0.16745663  -0.00000371 -0.00000198  -0.00000371 -0.00000198   0.95394743 -0.16745663
8.196250e+08   0.95371804 -0.16784062  -0.00000377 -0.00000199  -0.00000377 -0.00000199   0.95371804 -0.16784062
8.197500e+08   0.95348701 -0.16822614  -0.00000382 -0.00000201  -0.00000382 -0.00000201   0.95348701 -0.16822614
8.198750e+08   0.95325429 -0.16861320  -0.00000387 -0.00000202  -0.00000387 -0.00000202   0.95325429 -0.16861320
8.200000e+08   0.95301989 -0.16900181  -0.00000393 -0.00000204  -0.00000393 -0.00000204   0.95301989 -0.16900181
8.201250e+08   0.95278378 -0.16939197  -0.00000399 -0.00000205  -0.00000399 -0.00000205   0.95278378 -0.16939197
8.202500e+08   0.95254595 -0.16978370  -0.00000404 -0.00000207  -0.00000404 -0.00000207   0.95254595 -0.16978370
8.203750e+08   0.95230637 -0.17017700  -0.00000410 -0.00000208  -0.00000410 -0.00000208   0.95230637 -0.17017700
8.205000e+08   0.95206505 -0.17057188  -0.00000416 -0.00000210  -0.00000416 -0.00000210   0.95206505 -0.17057188
8.206250e+08   0.95182195 -0.17096835  -0.00000422 -0.00000211  -0.00000422 -0.00000211   0.95182195 -0.17096835
8.207500e+08   0.95157706 -0.17136642  -0.00000428 -0.00000213  -0.00000428 -0.00000213   0.95157706 -0.17136642
8.208750e+08   0.95133037 -0.17176608  -0.00000434 -0.00000214  -0.00000434 -0.00000214   0.95133037 -0.17176608
8.210000e+08   0.95108186 -0.17216736  -0.00000441 -0.00000216  -0.00000441 -0.00000216   0.95108186 -0.17216736
8.211250e+08   0.95083150 -0.17257026  -0.00000447 -0.00000217  -0.00000447 -0.00000217   0.95083150 -0.17257026
8.212500e+08   0.95057928 -0.17297479  -0.00000453 -0.00000219  -0.00000453 -0.00000219   0.95057928 -0.17297479
8.213750e+08   0.95032519 -0.17338095  -0.00000460 -0.00000220  -0.00000460 -0.00000220   0.95032519 -0.17338095
8.215000e+08   0.95006921 -0.17378876  -0.00000467 -0.00000222  -0.00000467 -0.00000222   0.95006921 -0.17378876
8.216250e+08   0.94981131 -0.17419822  -0.00000474 -0.00000223  -0.00000474 -0.00000223   0.94981131 -0.17419822
8.217500e+08   0.94955148 -0.17460934  -0.00000481 -0.00000225  -0.00000481 -0.00000225   0.94955148 -0.17460934
8.218750e+08   0.94928970 -0.17502213  -0.00000488 -0.00000226  -0.00000488 -0.00000226   0.94928970 -0.17502213
8.220000e+08   0.94902596 -0.17543660  -0.00000495 -0.00000228  -0.00000495 -0.00000228   0.94902596 -0.17543660
8.221250e+08   0.94876022 -0.17585275  -0.00000502 -0.00000229  -0.00000502 -0.00000229   0.94876022 -0.17585275
8.222500e+08   0.94849248 -0.17627060  -0.00000510 -0.00000231  -0.00000510 -0.00000231   0.94849248 -0.17627060
8.223750e+08   0.94822271 -0.17669015  -0.00000517 -0.00000232  -0.00000517 -0.00000232   0.94822271 -0.17669015
8.225000e+08   0.94795089 -0.17711141  -0.00000525 -0.00000234  -0.00000525 -0.00000234   0.94795089 -0.17711141
8.226250e+08   0.94767701 -0.17753439  -0.00000533 -0.00000235  -0.00000533 -0.00000235   0.94767701 -0.17753439
8.227500e+08   0.94740104 -0.17795910  -0.00000541 -0.00000237  -0.00000541 -0.00000237   0.94740104 -0.17795910
8.228750e+08   0.94712296 -0.17838554  -0.00000549 -0.00000238  -0.00000549 -0.00000238   0.94712296 -0.17838554
8.230000e+08   0.94684275 -0.17881373  -0.00000557 -0.00000239  -0.00000557 -0.00000239   0.94684275 -0.17881373
8.231250e+08   0.94656039 -0.17924367  -0.00000565 -0.00000241  -0.00000565 -0.00000241   0.94656039 -0.17924367
8.232500e+08   0.94627586 -0.17967537  -0.00000574 -0.00000242  -0.00000574 -0.00000242   0.94627586 -0.17967537
8.233750e+08   0.94598914 -0.18010885  -0.00000582 -0.00000244  -0.00000582 -0.00000244   0.94598914 -0.18010885
8.235000e+08   0.94570021 -0.18054410  -0.00000591 -0.00000245  -0.00000591 -0.00000245   0.94570021 -0.18054410
8.236250e+08   0.94540903 -0.18098114  -0.00000600 -0.00000247  -0.00000600 -0.00000247   0.94540903 -0.18098114
8.237500e+08   0.94511560 -0.18141997  -0.00000609 -0.00000248  -0.00000609 -0.00000248   0.94511560 -0.18141997
8.238750e+08   0.94481989 -0.18186061  -0.00000618 -0.00000249  -0.00000618 -0.00000249   0.94481989 -0.18186061
8.240000e+08   0.94452187 -0.18230306  -0.00000628 -0.00000251  -0.00000628 -0.00000251   0.94452187 -0.18230306
8.241250e+08   0.94422152 -0.18274734  -0.00000637 -0.00000252  -0.00000637 -0.00000252   0.94422152 -0.18274734
8.242500e+08   0.94391882 -0.18319344  -0.00000647 -0.00000253  -0.00000647 -0.00000253   0.94391882 -0.18319344
8.243750e+08   0.94361375 -0.18364138  -0.00000657 -0.00000255  -0.00000657 -0.00000255   0.94361375 -0.18364138
8.245000e+08   0.94330628 -0.18409117  -0.00000667 -0.00000256  -0.00000667 -0.00000256   0.94330628 -0.18409117
8.246250e+08   0.94299638 -0.18454282  -0.00000677 -0.00000257  -0.00000677 -0.00000257   0.94299638 -0.18454282
8.247500e+08   0.94268403 -0.18499633  -0.00000687 -0.00000258  -0.00000687 -0.00000258   0.94268403 -0.18499633
8.248750e+08   0.94236922 -0.18545171  -0.00000698 -0.00000260  -0.00000698 -0.00000260   0.94236922 -0.18545171
8.250000e+08   0.94205190 -0.18590898  -0.00000709 -0.00000261  -0.00000709 -0.00000261   0.94205190 -0.18590898
8.251250e+08   0.94173206 -0.18636814  -0.00000720 -0.00000262  -0.00000720 -0.00000262   0.94173206 -0.18636814
8.252500e+08   0.94140967 -0.18682920  -0.00000731 -0.00000263  -0.00000731 -0.00000263   0.94140967 -0.18682920
8.253750e+08   0.94108470 -0.18729216  -0.00000742 -0.00000264  -0.00000742 -0.00000264   0.94108470 -0.18729216
8.255000e+08   0.94075713 -0.18775705  -0.00000754 -0.00000265  -0.00000754 -0.00000265   0.94075713 -0.18775705
8.256250e+08   0.94042693 -0.18822386  -0.00000765 -0.00000266  -0.00000765 -0.00000266   0.94042693 -0.18822386
8.257500e+08   0.94009408 -0.18869260  -0.00000777 -0.00000267  -0.00000777 -0.00000267   0.94009408 -0.18869260
8.258750e+08   0.93975854 -0.18916329  -0.00000790 -0.00000268  -0.00000790 -0.00000268   0.93975854 -0.18916329
8.260000e+08   0.93942029 -0.18963593  -0.00000802 -0.00000269  -0.00000802 -0.00000269   0.93942029 -0.18963593
8.261250e+08   0.93907930 -0.19011053  -0.00000814 -0.00000270  -0.00000814 -0.00000270   0.93907930 -0.19011053
8.262500e+08   0.93873554 -0.19058709  -0.00000827 -0.00000271  -0.00000827 -0.00000271   0.93873554 -0.19058709
8.263750e+08   0.93838898 -0.19106564  -0.00000840 -0.00000272  -0.00000840 -0.00000272   0.93838898 -0.19106564
8.265000e+08   0.93803959 -0.19154617  -0.00000853 -0.00000272  -0.00000853 -0.00000272   0.93803959 -0.19154617
8.266250e+08   0.93768735 -0.19202870  -0.00000867 -0.00000273  -0.00000867 -0.00000273   0.93768735 -0.19202870
8.267500e+08   0.93733222 -0.19251323  -0.00000881 -0.00000274  -0.00000881 -0.00000274   0.93733222 -0.19251323
8.268750e+08   0.93697417 -0.19299978  -0.00000895 -0.00000274  -0.00000895 -0.00000274   0.93697417 -0.19299978
8.270000e+08   0.93661318 -0.19348834  -0.00000909 -0.00000275  -0.00000909 -0.00000275   0.93661318 -0.19348834
8.271250e+08   0.93624921 -0.19397894  -0.00000923 -0.00000275  -0.00000923 -0.00000275   0.93624921 -0.19397894
8.272500e+08   0.93588222 -0.19447157  -0.00000938 -0.00000276  -0.00000938 -0.00000276   0.93588222 -0.19447157
8.273750e+08   0.93551220 -0.19496625  -0.00000953 -0.00000276  -0.00000953 -0.00000276   0.93551220 -0.19496625
8.275000e+08   0.93513910 -0.19546298  -0.00000968 -0.00000276  -0.00000968 -0.00000276   0.93513910 -0.19546298
8.276250e+08   0.93476289 -0.19596178  -0.00000984 -0.00000277  -0.00000984 -0.00000277   0.93476289 -0.19596178
8.277500e+08   0.93438354 -0.19646264  -0.00000999 -0.00000277  -0.00000999 -0.00000277   0.93438354 -0.19646264
8.278750e+08   0.93400102 -0.19696559  -0.00001015 -0.00000277  -0.00001015 -0.00000277   0.93400102 -0.19696559
8.280000e+08   0.93361528 -0.19747063  -0.00001032 -0.00000277  -0.00001032 -0.00000277   0.93361528 -0.19747063
8.281250e+08   0.93322631 -0.19797776  -0.00001048 -0.00000277  -0.00001048 -0.00000277   0.93322631 -0.19797776
8.282500e+08   0.93283406 -0.19848700  -0.00001065 -0.00000277  -0.00001065 -0.00000277   0.93283406 -0.19848700
8.283750e+08   0.93243849 -0.19899835  -0.00001083 -0.00000276  -0.00001083 -0.00000276   0.93243849 -0.19899835
8.285000e+08   0.93203957 -0.19951182  -0.00001100 -0.00000276  -0.00001100 -0.00000276   0.93203957 -0.19951182
8.286250e+08   0.93163727 -0.20002742  -0.00001118 -0.00000276  -0.00001118 -0.00000276   0.93163727 -0.20002742
8.287500e+08   0.93123155 -0.20054516  -0.00001136 -0.00000275  -0.00001136 -0.00000275   0.93123155 -0.20054516
8.288750e+08   0.93082237 -0.20106504  -0.00001155 -0.00000274  -0.00001155 -0.00000274   0.93082237 -0.20106504
8.290000e+08   0.93040969 -0.20158707  -0.00001174 -0.00000274  -0.00001174 -0.00000274   0.93040969 -0.20158707
8.291250e+08   0.92999347 -0.20211127  -0.00001193 -0.00000273  -0.00001193 -0.00000273   0.92999347 -0.20211127
8.292500e+08   0.92957369 -0.20263763  -0.00001212 -0.00000272  -0.00001212 -0.00000272   0.92957369 -0.20263763
8.293750e+08   0.92915028 -0.20316617  -0.00001232 -0.00000271  -0.00001232 -0.00000271   0.92915028 -0.20316617
8.295000e+08   0.92872323 -0.20369689  -0.00001253 -0.00000269  -0.00001253 -0.00000269   0.92872323 -0.20369689
8.296250e+08   0.92829248 -0.20422980  -0.00001273 -0.00000268  -0.00001273 -0.00000268   0.92829248 -0.20422980
8.297500e+08   0.92785800 -0.20476492  -0.00001294 -0.00000267  -0.00001294 -0.00000267   0.92785800 -0.20476492
8.298750e+08   0.92741975 -0.20530223  -0.00001316 -0.00000265  -0.00001316 -0.00000265   0.92741975 -0.20530223
8.300000e+08   0.92697768 -0.20584176  -0.00001337 -0.00000263  -0.00001337 -0.00000263   0.92697768 -0.20584176
8.301250e+08   0.92653175 -0.20638351  -0.00001360 -0.00000261  -0.00001360 -0.00000261   0.92653175 -0.20638351
8.302500e+08   0.92608191 -0.20692748  -0.00001382 -0.00000259  -0.00001382 -0.00000259   0.92608191 -0.20692748
8.303750e+08   0.92562814 -0.20747369  -0.00001405 -0.00000257  -0.00001405 -0.00000257   0.92562814 -0.20747369
8.305000e+08   0.92517037 -0.20802214  -0.00001429 -0.00000254  -0.00001429 -0.00000254   0.92517037 -0.20802214
8.306250e+08   0.92470857 -0.20857283  -0.00001452 -0.00000252  -0.00001452 -0.00000252   0.92470857 -0.20857283
8.307500e+08   0.92424269 -0.20912578  -0.00001477 -0.00000249  -0.00001477 -0.00000249   0.92424269 -0.20912578
8.308750e+08   0.92377268 -0.20968099  -0.00001501 -0.00000246  -0.00001501 -0.00000246   0.92377268 -0.20968099
8.310000e+08   0.92329851 -0.21023846  -0.00001527 -0.00000243  -0.00001527 -0.00000243   0.92329851 -0.21023846
8.311250e+08   0.92282011 -0.21079820  -0.00001552 -0.00000239  -0.00001552 -0.00000239   0.92282011 -0.21079820
8.312500e+08   0.92233745 -0.21136022  -0.00001578 -0.00000236  -0.00001578 -0.00000236   0.92233745 -0.21136022
8.313750e+08   0.92185048 -0.21192453  -0.00001605 -0.00000232  -0.00001605 -0.00000232   0.92185048 -0.21192453
8.315000e+08   0.92135914 -0.21249112  -0.00001632 -0.00000228  -0.00001632 -0.00000228   0.92135914 -0.21249112
8.316250e+08   0.92086339 -0.21306000  -0.00001660 -0.00000224  -0.00001660 -0.00000224   0.92086339 -0.21306000
8.317500e+08   0.92036318 -0.21363119  -0.00001688 -0.00000219  -0.00001688 -0.00000219   0.92036318 -0.21363119
8.318750e+08   0.91985845 -0.21420468  -0.00001717 -0.00000214  -0.00001717 -0.00000214   0.91985845 -0.21420468
8.320000e+08   0.91934916 -0.21478047  -0.00001746 -0.00000209  -0.00001746 -0.00000209   0.91934916 -0.21478047
8.321250e+08   0.91883525 -0.21535859  -0.00001775 -0.00000204  -0.00001775 -0.00000204   0.91883525 -0.21535859
8.322500e+08   0.91831668 -0.21593901  -0.00001806 -0.00000198  -0.00001806 -0.00000198   0.91831668 -0.21593901
8.323750e+08   0.91779337 -0.21652176  -0.00001836 -0.00000192  -0.00001836 -0.00000192   0.91779337 -0.21652176
8.325000e+08   0.91726529 -0.21710684  -0.00001868 -0.00000186  -0.00001868 -0.00000186   0.91726529 -0.21710684
8.326250e+08   0.91673238 -0.21769425  -0.00001900 -0.00000179  -0.00001900 -0.00000179   0.91673238 -0.21769425
8.327500e+08   0.91619458 -0.21828398  -0.00001932 -0.00000172  -0.00001932 -0.00000172   0.91619458 -0.21828398
8.328750e+08   0.91565183 -0.21887606  -0.00001966 -0.00000165  -0.00001966 -0.00000165   0.91565183 -0.21887606
8.330000e+08   0.91510408 -0.21947047  -0.00001999 -0.00000158  -0.00001999 -0.00000158   0.91510408 -0.21947047
8.331250e+08   0.91455127 -0.22006723  -0.00002034 -0.00000150  -0.00002034 -0.00000150   0.91455127 -0.22006723
8.332500e+08   0.91399334 -0.22066632  -0.00002069 -0.00000141  -0.00002069 -0.00000141   0.91399334 -0.22066632
8.333750e+08   0.91343023 -0.22126777  -0.00002105 -0.00000133  -0.00002105 -0.00000133   0.91343023 -0.22126777
8.335000e+08   0.91286188 -0.22187156  -0.00002141 -0.00000123  -0.00002141 -0.00000123   0.91286188 -0.22187156
8.336250e+08   0.91228823 -0.22247770  -0.00002178 -0.00000114  -0.00002178 -0.00000114   0.91228823 -0.22247770
8.337500e+08   0.91170922 -0.22308619  -0.00002216 -0.00000104  -0.00002216 -0.00000104   0.91170922 -0.22308619
8.338750e+08   0.91112478 -0.22369703  -0.00002254 -0.00000093  -0.00002254 -0.00000093   0.91112478 -0.22369703
8.340000e+08   0.91053485 -0.22431023  -0.00002293 -0.00000082  -0.00002293 -0.00000082   0.91053485 -0.22431023
8.341250e+08   0.90993937 -0.22492577  -0.00002333 -0.00000071  -0.00002333 -0.00000071   0.90993937 -0.22492577
8.342500e+08   0.90933827 -0.22554367  -0.00002374 -0.00000059  -0.00002374 -0.00000059   0.90933827 -0.22554367
8.343750e+08   0.90873148 -0.22616392  -0.00002415 -0.00000046  -0.00002415 -0.00000046   0.90873148 -0.22616392
8.345000e+08   0.90811894 -0.22678651  -0.00002458 -0.00000033  -0.00002458 -0.00000033   0.90811894 -0.22678651
8.346250e+08   0.90750058 -0.22741146  -0.00002501 -0.00000020  -0.00002501 -0.00000020   0.90750058 -0.22741146
8.347500e+08   0.90687632 -0.22803875  -0.00002544 -0.00000005  -0.00002544 -0.00000005   0.90687632 -0.22803875
8.348750e+08   0.90624611 -0.22866838  -0.00002589  0.00000009  -0.00002589  0.00000009   0.90624611 -0.22866838
8.350000e+08   0.90560987 -0.22930036  -0.00002634  0.00000025  -0.00002634  0.00000025   0.90560987 -0.22930036
8.351250e+08   0.90496752 -0.22993467  -0.00002681  0.00000041  -0.00002681  0.00000041   0.90496752 -0.22993467
8.352500e+08   0.90431899 -0.23057131  -0.00002728  0.00000058  -0.00002728  0.00000058   0.90431899 -0.23057131
8.353750e+08   0.90366422 -0.23121029  -0.00002776  0.00000075  -0.00002776  0.00000075   0.90366422 -0.23121029
8.355000e+08   0.90300312 -0.23185158  -0.00002825  0.00000093  -0.00002825  0.00000093   0.90300312 -0.23185158
8.356250e+08   0.90233562 -0.23249520  -0.00002874  0.00000112  -0.00002874  0.00000112   0.90233562 -0.23249520
8.357500e+08   0.90166164 -0.23314113  -0.00002925  0.00000132  -0.00002925  0.00000132   0.90166164 -0.23314113
8.358750e+08   0.90098111 -0.23378937  -0.00002977  0.00000153  -0.00002977  0.00000153   0.90098111 -0.23378937
8.360000e+08   0.90029394 -0.23443991  -0.00003029  0.00000174  -0.00003029  0.00000174   0.90029394 -0.23443991
8.361250e+08   0.89960006 -0.23509274  -0.00003083  0.00000196  -0.00003083  0.00000196   0.89960006 -0.23509274
8.362500e+08   0.89889938 -0.23574785  -0.00003138  0.00000219  -0.00003138  0.00000219   0.89889938 -0.23574785
8.363750e+08   0.89819182 -0.23640524  -0.00003193  0.00000243  -0.00003193  0.00000243   0.89819182 -0.23640524
8.365000e+08   0.89747731 -0.23706489  -0.00003250  0.00000268  -0.00003250  0.00000268   0.89747731 -0.23706489
8.366250e+08   0.89675574 -0.23772680  -0.00003308  0.00000294  -0.00003308  0.00000294   0.89675574 -0.23772680
8.367500e+08   0.89602705 -0.23839095  -0.00003366  0.00000321  -0.00003366  0.00000321   0.89602705 -0.23839095
8.368750e+08   0.89529114 -0.23905733  -0.00003426  0.00000349  -0.00003426  0.00000349   0.89529114 -0.23905733
8.370000e+08   0.89454792 -0.23972593  -0.00003487  0.00000379  -0.00003487  0.00000379   0.89454792 -0.23972593
8.371250e+08   0.89379730 -0.24039673  -0.00003549  0.00000409  -0.00003549  0.00000409   0.89379730 -0.24039673
8.372500e+08   0.89303920 -0.24106973  -0.00003612  0.00000440  -0.00003612  0.00000440   0.89303920 -0.24106973
8.373750e+08   0.89227353 -0.24174491  -0.00003676  0.00000473  -0.00003676  0.00000473   0.89227353 -0.24174491
8.375000e+08   0.89150018 -0.24242224  -0.00003742  0.00000507  -0.00003742  0.00000507   0.89150018 -0.24242224
8.376250e+08   0.89071907 -0.24310172  -0.00003808  0.00000542  -0.00003808  0.00000542   0.89071907 -0.24310172
8.377500e+08   0.88993010 -0.24378333  -0.00003876  0.00000579  -0.00003876  0.00000579   0.88993010 -0.24378333
8.378750e+08   0.88913318 -0.24446704  -0.00003945  0.00000617  -0.00003945  0.00000617   0.88913318 -0.24446704
8.380000e+08   0.88832820 -0.24515284  -0.00004016  0.00000656  -0.00004016  0.00000656   0.88832820 -0.24515284
8.381250e+08   0.88751508 -0.24584071  -0.00004087  0.00000697  -0.00004087  0.00000697   0.88751508 -0.24584071
8.382500e+08   0.88669369 -0.24653062  -0.00004160  0.00000740  -0.00004160  0.00000740   0.88669369 -0.24653062
8.383750e+08   0.88586396 -0.24722256  -0.00004234  0.00000784  -0.00004234  0.00000784   0.88586396 -0.24722256
8.385000e+08   0.88502577 -0.24791649  -0.00004309  0.00000830  -0.00004309  0.00000830   0.88502577 -0.24791649
8.386250e+08   0.88417901 -0.24861241  -0.00004386  0.00000878  -0.00004386  0.00000878   0.88417901 -0.24861241
8.387500e+08   0.88332359 -0.24931026  -0.00004464  0.00000927  -0.00004464  0.00000927   0.88332359 -0.24931026
8.388750e+08   0.88245939 -0.25001004  -0.00004544  0.00000978  -0.00004544  0.00000978   0.88245939 -0.25001004
8.390000e+08   0.88158631 -0.25071171  -0.00004624  0.00001031  -0.00004624  0.00001031   0.88158631 -0.25071171
8.391250e+08   0.88070424 -0.25141525  -0.00004707  0.00001086  -0.00004707  0.00001086   0.88070424 -0.25141525
8.392500e+08   0.87981306 -0.25212061  -0.00004790  0.00001143  -0.00004790  0.00001143   0.87981306 -0.25212061
8.393750e+08   0.87891266 -0.25282778  -0.00004875  0.00001203  -0.00004875  0.00001203   0.87891266 -0.25282778
8.395000e+08   0.87800293 -0.25353670  -0.00004962  0.00001264  -0.00004962  0.00001264   0.87800293 -0.25353670
8.396250e+08   0.87708376 -0.25424736  -0.00005050  0.00001328  -0.00005050  0.00001328   0.87708376 -0.25424736
8.397500e+08   0.87615501 -0.25495971  -0.00005139  0.00001394  -0.00005139  0.00001394   0.87615501 -0.25495971
8.398750e+08   0.87521659 -0.25567371  -0.00005230  0.00001462  -0.00005230  0.00001462   0.87521659 -0.25567371
8.400000e+08   0.87426836 -0.25638933  -0.00005323  0.00001533  -0.00005323  0.00001533   0.87426836 -0.25638933
8.401250e+08   0.87331020 -0.25710652  -0.00005417  0.00001607  -0.00005417  0.00001607   0.87331020 -0.25710652
8.402500e+08   0.87234200 -0.25782524  -0.00005512  0.00001683  -0.00005512  0.00001683   0.87234200 -0.25782524
8.403750e+08   0.87136362 -0.25854544  -0.00005609  0.00001762  -0.00005609  0.00001762   0.87136362 -0.25854544
8.405000e+08   0.87037493 -0.25926708  -0.00005708  0.00001844  -0.00005708  0.00001844   0.87037493 -0.25926708
8.406250e+08   0.86937582 -0.25999011  -0.00005808  0.00001929  -0.00005808  0.00001929   0.86937582 -0.25999011
8.407500e+08   0.86836615 -0.26071447  -0.00005910  0.00002017  -0.00005910  0.00002017   0.86836615 -0.26071447
8.408750e+08   0.86734579 -0.26144012  -0.00006013  0.00002108  -0.00006013  0.00002108   0.86734579 -0.26144012
8.410000e+08   0.86631461 -0.26216700  -0.00006118  0.00002203  -0.00006118  0.00002203   0.86631461 -0.26216700
8.411250e+08   0.86527246 -0.26289506  -0.00006224  0.00002301  -0.00006224  0.00002301   0.86527246 -0.26289506
8.412500e+08   0.86421923 -0.26362423  -0.00006332  0.00002402  -0.00006332  0.00002402   0.86421923 -0.26362423
8.413750e+08   0.86315476 -0.26435446  -0.00006442  0.00002508  -0.00006442  0.00002508   0.86315476 -0.26435446
8.415000e+08   0.86207892 -0.26508568  -0.00006553  0.00002616  -0.00006553  0.00002616   0.86207892 -0.26508568
8.416250e+08   0.86099157 -0.26581782  -0.00006666  0.00002729  -0.00006666  0.00002729   0.86099157 -0.26581782
8.417500e+08   0.85989256 -0.26655082  -0.00006780  0.00002846  -0.00006780  0.00002846   0.85989256 -0.26655082
8.418750e+08   0.85878175 -0.26728462  -0.00006896  0.00002967  -0.00006896  0.00002967   0.85878175 -0.26728462
8.420000e+08   0.85765900 -0.26801912  -0.00007014  0.00003093  -0.00007014  0.00003093   0.85765900 -0.26801912
8.421250e+08   0.85652415 -0.26875427  -0.00007133  0.00003223  -0.00007133  0.00003223   0.85652415 -0.26875427
8.422500e+08   0.85537707 -0.26948998  -0.00007254  0.00003357  -0.00007254  0.00003357   0.85537707 -0.26948998
8.423750e+08   0.85421758 -0.27022618  -0.00007376  0.00003496  -0.00007376  0.00003496   0.85421758 -0.27022618
8.425000e+08   0.85304555 -0.27096277  -0.00007500  0.00003641  -0.00007500  0.00003641   0.85304555 -0.27096277
8.426250e+08   0.85186082 -0.27169967  -0.00007625  0.00003790  -0.00007625  0.00003790   0.85186082 -0.27169967
8.427500e+08   0.85066323 -0.27243680  -0.00007752  0.00003945  -0.00007752  0.00003945   0.85066323 -0.27243680
8.428750e+08   0.84945262 -0.27317405  -0.00007880  0.00004105  -0.00007880  0.00004105   0.84945262 -0.27317405
8.430000e+08   0.84822884 -0.27391134  -0.00008009  0.00004271  -0.00008009  0.00004271   0.84822884 -0.27391134
8.431250e+08   0.84699173 -0.27464857  -0.00008140  0.00004443  -0.00008140  0.00004443   0.84699173 -0.27464857
8.432500e+08   0.84574111 -0.27538563  -0.00008272  0.00004620  -0.00008272  0.00004620   0.84574111 -0.27538563
8.433750e+08   0.84447683 -0.27612242  -0.00008406  0.00004804  -0.00008406  0.00004804   0.84447683 -0.27612242
8.435000e+08   0.84319872 -0.27685882  -0.00008540  0.00004995  -0.00008540  0.00004995   0.84319872 -0.27685882
8.436250e+08   0.84190661 -0.27759474  -0.00008676  0.00005192  -0.00008676  0.00005192   0.84190661 -0.27759474
8.437500e+08   0.84060034 -0.27833004  -0.00008813  0.00005396  -0.00008813  0.00005396   0.84060034 -0.27833004
8.438750e+08   0.83927972 -0.27906461  -0.00008951  0.00005607  -0.00008951  0.00005607   0.83927972 -0.27906461
8.440000e+08   0.83794460 -0.27979832  -0.00009090  0.00005825  -0.00009090  0.00005825   0.83794460 -0.27979832
8.441250e+08   0.83659479 -0.28053105  -0.00009230  0.00006052  -0.00009230  0.00006052   0.83659479 -0.28053105
8.442500e+08   0.83523013 -0.28126267  -0.00009371  0.00006286  -0.00009371  0.00006286   0.83523013 -0.28126267
8.443750e+08   0.83385042 -0.28199303  -0.00009512  0.00006528  -0.00009512  0.00006528   0.83385042 -0.28199303
8.445000e+08   0.83245550 -0.28272200  -0.00009654  0.00006778  -0.00009654  0.00006778   0.83245550 -0.28272200
8.446250e+08   0.83104518 -0.28344943  -0.00009796  0.00007037  -0.00009796  0.00007037   0.83104518 -0.28344943
8.447500e+08   0.82961929 -0.28417517  -0.00009939  0.00007305  -0.00009939  0.00007305   0.82961929 -0.28417517
8.448750e+08   0.82817764 -0.28489907  -0.00010082  0.00007583  -0.00010082  0.00007583   0.82817764 -0.28489907
8.450000e+08   0.82672004 -0.28562096  -0.00010225  0.00007870  -0.00010225  0.00007870   0.82672004 -0.28562096
8.451250e+08   0.82524631 -0.28634069  -0.00010368  0.00008166  -0.00010368  0.00008166   0.82524631 -0.28634069
8.452500e+08   0.82375627 -0.28705807  -0.00010510  0.00008473  -0.00010510  0.00008473   0.82375627 -0.28705807
8.453750e+08   0.82224972 -0.28777294  -0.00010652  0.00008790  -0.00010652  0.00008790   0.82224972 -0.28777294
8.455000e+08   0.82072648 -0.28848512  -0.00010794  0.00009118  -0.00010794  0.00009118   0.82072648 -0.28848512
8.456250e+08   0.81918636 -0.28919441  -0.00010935  0.00009457  -0.00010935  0.00009457   0.81918636 -0.28919441
8.457500e+08   0.81762917 -0.28990064  -0.00011074  0.00009808  -0.00011074  0.00009808   0.81762917 -0.28990064
8.458750e+08   0.81605471 -0.29060359  -0.00011213  0.00010171  -0.00011213  0.00010171   0.81605471 -0.29060359
8.460000e+08   0.81446279 -0.29130307  -0.00011350  0.00010545  -0.00011350  0.00010545   0.81446279 -0.29130307
8.461250e+08   0.81285322 -0.29199886  -0.00011485  0.00010932  -0.00011485  0.00010932   0.81285322 -0.29199886
8.462500e+08   0.81122581 -0.29269076  -0.00011618  0.00011333  -0.00011618  0.00011333   0.81122581 -0.29269076
8.463750e+08   0.80958036 -0.29337853  -0.00011749  0.00011746  -0.00011749  0.00011746   0.80958036 -0.29337853
8.465000e+08   0.80791667 -0.29406196  -0.00011877  0.00012173  -0.00011877  0.00012173   0.80791667 -0.29406196
8.466250e+08   0.80623455 -0.29474079  -0.00012002  0.00012615  -0.00012002  0.00012615   0.80623455 -0.29474079
8.467500e+08   0.80453381 -0.29541480  -0.00012123  0.00013071  -0.00012123  0.00013071   0.80453381 -0.29541480
8.468750e+08   0.80281424 -0.29608373  -0.00012241  0.00013542  -0.00012241  0.00013542   0.80281424 -0.29608373
8.470000e+08   0.80107566 -0.29674732  -0.00012355  0.00014028  -0.00012355  0.00014028   0.80107566 -0.29674732
8.471250e+08   0.79931786 -0.29740531  -0.00012464  0.00014530  -0.00012464  0.00014530   0.79931786 -0.29740531
8.472500e+08   0.79754066 -0.29805743  -0.00012568  0.00015049  -0.00012568  0.00015049   0.79754066 -0.29805743
8.473750e+08   0.79574385 -0.29870339  -0.00012666  0.00015584  -0.00012666  0.00015584   0.79574385 -0.29870339
8.475000e+08   0.79392724 -0.29934292  -0.00012758  0.00016136  -0.00012758  0.00016136   0.79392724 -0.29934292
8.476250e+08   0.79209064 -0.29997571  -0.00012843  0.00016706  -0.00012843  0.00016706   0.79209064 -0.29997571
8.477500e+08   0.79023386 -0.30060146  -0.00012922  0.00017295  -0.00012922  0.00017295   0.79023386 -0.30060146
8.478750e+08   0.78835670 -0.30121985  -0.00012992  0.00017901  -0.00012992  0.00017901   0.78835670 -0.30121985
8.480000e+08   0.78645896 -0.30183058  -0.00013054  0.00018527  -0.00013054  0.00018527   0.78645896 -0.30183058
8.481250e+08   0.78454048 -0.30243330  -0.00013107  0.00019173  -0.00013107  0.00019173   0.78454048 -0.30243330
8.482500e+08   0.78260104 -0.30302768  -0.00013149  0.00019838  -0.00013149  0.00019838   0.78260104 -0.30302768
8.483750e+08   0.78064048 -0.30361336  -0.00013181  0.00020524  -0.00013181  0.00020524   0.78064048 -0.30361336
8.485000e+08   0.77865861 -0.30419000  -0.00013202  0.00021231  -0.00013202  0.00021231   0.77865861 -0.30419000
8.486250e+08   0.77665524 -0.30475722  -0.00013210  0.00021960  -0.00013210  0.00021960   0.77665524 -0.30475722
8.487500e+08   0.77463019 -0.30531466  -0.00013205  0.00022710  -0.00013205  0.00022710   0.77463019 -0.30531466
8.488750e+08   0.77258330 -0.30586191  -0.00013186  0.00023483  -0.00013186  0.00023483   0.77258330 -0.30586191
8.490000e+08   0.77051439 -0.30639859  -0.00013151  0.00024279  -0.00013151  0.00024279   0.77051439 -0.30639859
8.491250e+08   0.76842328 -0.30692428  -0.00013100  0.00025098  -0.00013100  0.00025098   0.76842328 -0.30692428
8.492500e+08   0.76630983 -0.30743857  -0.00013032  0.00025941  -0.00013032  0.00025941   0.76630983 -0.30743857
8.493750e+08   0.76417385 -0.30794104  -0.00012945  0.00026808  -0.00012945  0.00026808   0.76417385 -0.30794104
8.495000e+08   0.76201521 -0.30843124  -0.00012839  0.00027700  -0.00012839  0.00027700   0.76201521 -0.30843124
8.496250e+08   0.75983374 -0.30890873  -0.00012711  0.00028617  -0.00012711  0.00028617   0.75983374 -0.30890873
8.497500e+08   0.75762930 -0.30937304  -0.00012561  0.00029560  -0.00012561  0.00029560   0.75762930 -0.30937304
8.498750e+08   0.75540175 -0.30982370  -0.00012387  0.00030528  -0.00012387  0.00030528   0.75540175 -0.30982370
8.500000e+08   0.75315096 -0.31026023  -0.00012188  0.00031523  -0.00012188  0.00031523   0.75315096 -0.31026023
8.501250e+08   0.75087679 -0.31068213  -0.00011962  0.00032544  -0.00011962  0.00032544   0.75087679 -0.31068213
8.502500e+08   0.74857912 -0.31108890  -0.00011707  0.00033592  -0.00011707  0.00033592   0.74857912 -0.31108890
8.503750e+08   0.74625784 -0.31148003  -0.00011422  0.00034667  -0.00011422  0.00034667   0.74625784 -0.31148003
8.505000e+08   0.74391285 -0.31185497  -0.00011106  0.00035770  -0.00011106  0.00035770   0.74391285 -0.31185497
8.506250e+08   0.74154403 -0.31221319  -0.00010755  0.00036900  -0.00010755  0.00036900   0.74154403 -0.31221319
8.507500e+08   0.73915131 -0.31255414  -0.00010369  0.00038057  -0.00010369  0.00038057   0.73915131 -0.31255414
8.508750e+08   0.73673461 -0.31287725  -0.00009944  0.00039243  -0.00009944  0.00039243   0.73673461 -0.31287725
8.510000e+08   0.73429384 -0.31318194  -0.00009480  0.00040455  -0.00009480  0.00040455   0.73429384 -0.31318194
8.511250e+08   0.73182896 -0.31346762  -0.00008974  0.00041696  -0.00008974  0.00041696   0.73182896 -0.31346762
8.512500e+08   0.72933991 -0.31373369  -0.00008423  0.00042964  -0.00008423  0.00042964   0.72933991 -0.31373369
8.513750e+08   0.72682665 -0.31397955  -0.00007825  0.00044259  -0.00007825  0.00044259   0.72682665 -0.31397955
8.515000e+08   0.72428916 -0.31420455  -0.00007178  0.00045581  -0.00007178  0.00045581   0.72428916 -0.31420455
8.516250e+08   0.72172742 -0.31440806  -0.00006479  0.00046930  -0.00006479  0.00046930   0.72172742 -0.31440806
8.517500e+08   0.71914143 -0.31458944  -0.00005725  0.00048305  -0.00005725  0.00048305   0.71914143 -0.31458944
8.518750e+08   0.71653121 -0.31474801  -0.00004914  0.00049705  -0.00004914  0.00049705   0.71653121 -0.31474801
8.520000e+08   0.71389678 -0.31488311  -0.00004043  0.00051131  -0.00004043  0.00051131   0.71389678 -0.31488311
8.521250e+08   0.71123820 -0.31499405  -0.00003109  0.00052580  -0.00003109  0.00052580   0.71123820 -0.31499405
8.522500e+08   0.70855551 -0.31508013  -0.00002108  0.00054052  -0.00002108  0.00054052   0.70855551 -0.31508013
8.523750e+08   0.70584879 -0.31514065  -0.00001038  0.00055546  -0.00001038  0.00055546   0.70584879 -0.31514065
8.525000e+08   0.70311814 -0.31517487   0.00000105  0.00057060   0.00000105  0.00057060   0.70311814 -0.31517487
8.526250e+08   0.70036368 -0.31518208   0.00001324  0.00058594   0.00001324  0.00058594   0.70036368 -0.31518208
8.527500e+08   0.69758553 -0.31516153   0.00002622  0.00060145   0.00002622  0.00060145   0.69758553 -0.31516153
8.528750e+08   0.69478384 -0.31511247   0.00004003  0.00061711   0.00004003  0.00061711   0.69478384 -0.31511247
8.530000e+08   0.69195879 -0.31503414   0.00005471  0.00063291   0.00005471  0.00063291   0.69195879 -0.31503414
8.531250e+08   0.68911056 -0.31492576   0.00007030  0.00064883   0.00007030  0.00064883   0.68911056 -0.31492576
8.532500e+08   0.68623939 -0.31478656   0.00008682  0.00066483   0.00008682  0.00066483   0.68623939 -0.31478656
8.533750e+08   0.68334549 -0.31461575   0.00010432  0.00068089   0.00010432  0.00068089   0.68334549 -0.31461575
8.535000e+08   0.68042915 -0.31441253   0.00012284  0.00069698   0.00012284  0.00069698   0.68042915 -0.31441253
8.536250e+08   0.67749064 -0.31417610   0.00014242  0.00071307   0.00014242  0.00071307   0.67749064 -0.31417610
8.537500e+08   0.67453027 -0.31390565   0.00016309  0.00072912   0.00016309  0.00072912   0.67453027 -0.31390565
8.538750e+08   0.67154839 -0.31360035   0.00018490  0.00074509   0.00018490  0.00074509   0.67154839 -0.31360035
8.540000e+08   0.66854536 -0.31325941   0.00020789  0.00076094   0.00020789  0.00076094   0.66854536 -0.31325941
8.541250e+08   0.66552158 -0.31288197   0.00023210  0.00077662   0.00023210  0.00077662   0.66552158 -0.31288197
8.542500e+08   0.66247746 -0.31246723   0.00025756  0.00079209   0.00025756  0.00079209   0.66247746 -0.31246723
8.543750e+08   0.65941347 -0.31201433   0.00028432  0.00080729   0.00028432  0.00080729   0.65941347 -0.31201433
8.545000e+08   0.65633008 -0.31152246   0.00031242  0.00082216   0.00031242  0.00082216   0.65633008 -0.31152246
8.546250e+08   0.65322781 -0.31099078   0.00034189  0.00083664   0.00034189  0.00083664   0.65322781 -0.31099078
8.547500e+08   0.65010720 -0.31041846   0.00037277  0.00085068   0.00037277  0.00085068   0.65010720 -0.31041846
8.548750e+08   0.64696883 -0.30980466   0.00040510  0.00086418   0.00040510  0.00086418   0.64696883 -0.30980466
8.550000e+08   0.64381331 -0.30914856   0.00043892  0.00087709   0.00043892  0.00087709   0.64381331 -0.30914856
8.551250e+08   0.64064128 -0.30844934   0.00047425  0.00088933   0.00047425  0.00088933   0.64064128 -0.30844934
8.552500e+08   0.63745342 -0.30770617   0.00051112  0.00090080   0.00051112  0.00090080   0.63745342 -0.30770617
8.553750e+08   0.63425045 -0.30691825   0.00054957  0.00091142   0.00054957  0.00091142   0.63425045 -0.30691825
8.555000e+08   0.63103311 -0.30608478   0.00058962  0.00092110   0.00058962  0.00092110   0.63103311 -0.30608478
8.556250e+08   0.62780218 -0.30520497   0.00063129  0.00092974   0.00063129  0.00092974   0.62780218 -0.30520497
8.557500e+08   0.62455848 -0.30427803   0.00067460  0.00093722   0.00067460  0.00093722   0.62455848 -0.30427803
8.558750e+08   0.62130287 -0.30330321   0.00071956  0.00094345   0.00071956  0.00094345   0.62130287 -0.30330321
8.560000e+08   0.61803624 -0.30227975   0.00076619  0.00094831   0.00076619  0.00094831   0.61803624 -0.30227975
8.561250e+08   0.61475950 -0.30120693   0.00081448  0.00095167   0.00081448  0.00095167   0.61475950 -0.30120693
8.562500e+08   0.61147363 -0.30008403   0.00086443  0.00095342   0.00086443  0.00095342   0.61147363 -0.30008403
8.563750e+08   0.60817962 -0.29891036   0.00091605  0.00095341   0.00091605  0.00095341   0.60817962 -0.29891036
8.565000e+08   0.60487851 -0.29768525   0.00096931  0.00095152   0.00096931  0.00095152   0.60487851 -0.29768525
8.566250e+08   0.60157136 -0.29640806   0.00102418  0.00094761   0.00102418  0.00094761   0.60157136 -0.29640806
8.567500e+08   0.59825927 -0.29507817   0.00108065  0.00094152   0.00108065  0.00094152   0.59825927 -0.29507817
8.568750e+08   0.59494338 -0.29369500   0.00113867  0.00093311   0.00113867  0.00093311   0.59494338 -0.29369500
8.570000e+08   0.59162487 -0.29225798   0.00119819  0.00092223   0.00119819  0.00092223   0.59162487 -0.29225798
8.571250e+08   0.58830494 -0.29076660   0.00125915  0.00090872   0.00125915  0.00090872   0.58830494 -0.29076660
8.572500e+08   0.58498482 -0.28922037   0.00132149  0.00089242   0.00132149  0.00089242   0.58498482 -0.28922037
8.573750e+08   0.58166577 -0.28761883   0.00138513  0.00087316   0.00138513  0.00087316   0.58166577 -0.28761883
8.575000e+08   0.57834909 -0.28596158   0.00144997  0.00085079   0.00144997  0.00085079   0.57834909 -0.28596158
8.576250e+08   0.57503611 -0.28424824   0.00151590  0.00082512   0.00151590  0.00082512   0.57503611 -0.28424824
8.577500e+08   0.57172816 -0.28247849   0.00158282  0.00079601   0.00158282  0.00079601   0.57172816 -0.28247849
8.578750e+08   0.56842663 -0.28065205   0.00165058  0.00076327   0.00165058  0.00076327   0.56842663 -0.28065205
8.580000e+08   0.56513291 -0.27876867   0.00171903  0.00072674   0.00171903  0.00072674   0.56513291 -0.27876867
8.581250e+08   0.56184840 -0.27682817   0.00178803  0.00068626   0.00178803  0.00068626   0.56184840 -0.27682817
8.582500e+08   0.55857456 -0.27483041   0.00185739  0.00064166   0.00185739  0.00064166   0.55857456 -0.27483041
8.583750e+08   0.55531282 -0.27277531   0.00192691  0.00059280   0.00192691  0.00059280   0.55531282 -0.27277531
8.585000e+08   0.55206466 -0.27066283   0.00199638  0.00053951   0.00199638  0.00053951   0.55206466 -0.27066283
8.586250e+08   0.54883154 -0.26849300   0.00206558  0.00048165   0.00206558  0.00048165   0.54883154 -0.26849300
8.587500e+08   0.54561495 -0.26626589   0.00213427  0.00041908   0.00213427  0.00041908   0.54561495 -0.26626589
8.588750e+08   0.54241638 -0.26398163   0.00220218  0.00035168   0.00220218  0.00035168   0.54241638 -0.26398163
8.590000e+08   0.53923732 -0.26164042   0.00226903  0.00027933   0.00226903  0.00027933   0.53923732 -0.26164042
8.591250e+08   0.53607926 -0.25924249   0.00233454  0.00020193   0.00233454  0.00020193   0.53607926 -0.25924249
8.592500e+08   0.53294369 -0.25678817   0.00239838  0.00011938   0.00239838  0.00011938   0.53294369 -0.25678817
8.593750e+08   0.52983211 -0.25427780   0.00246022  0.00003162   0.00246022  0.00003162   0.52983211 -0.25427780
8.595000e+08   0.52674596 -0.25171182   0.00251973 -0.00006142   0.00251973 -0.00006142   0.52674596 -0.25171182
8.596250e+08   0.52368673 -0.24909070   0.00257655 -0.00015975   0.00257655 -0.00015975   0.52368673 -0.24909070
8.597500e+08   0.52065585 -0.24641499   0.00263029 -0.00026341   0.00263029 -0.00026341   0.52065585 -0.24641499
8.598750e+08   0.51765475 -0.24368529   0.00268058 -0.00037238   0.00268058 -0.00037238   0.51765475 -0.24368529
8.600000e+08   0.51468483 -0.24090223   0.00272701 -0.00048663   0.00272701 -0.00048663   0.51468483 -0.24090223
8.601250e+08   0.51174747 -0.23806654   0.00276917 -0.00060608   0.00276917 -0.00060608   0.51174747 -0.23806654
8.602500e+08   0.50884402 -0.23517898   0.00280665 -0.00073066   0.00280665 -0.00073066   0.50884402 -0.23517898
8.603750e+08   0.50597579 -0.23224036   0.00283901 -0.00086024   0.00283901 -0.00086024   0.50597579 -0.23224036
8.605000e+08   0.50314407 -0.22925155   0.00286583 -0.00099467   0.00286583 -0.00099467   0.50314407 -0.22925155
8.606250e+08   0.50035010 -0.22621346   0.00288667 -0.00113377   0.00288667 -0.00113377   0.50035010 -0.22621346
8.607500e+08   0.49759508 -0.22312706   0.00290110 -0.00127730   0.00290110 -0.00127730   0.49759508 -0.22312706
8.608750e+08   0.49488018 -0.21999335   0.00290868 -0.00142503   0.00290868 -0.00142503   0.49488018 -0.21999335
8.610000e+08   0.49220651 -0.21681338   0.00290899 -0.00157664   0.00290899 -0.00157664   0.49220651 -0.21681338
8.611250e+08   0.48957514 -0.21358825   0.00290160 -0.00173182   0.00290160 -0.00173182   0.48957514 -0.21358825
8.612500e+08   0.48698709 -0.21031907   0.00288610 -0.00189019   0.00288610 -0.00189019   0.48698709 -0.21031907
8.613750e+08   0.48444331 -0.20700700   0.00286211 -0.00205136   0.00286211 -0.00205136   0.48444331 -0.20700700
8.615000e+08   0.48194473 -0.20365323   0.00282923 -0.00221486   0.00282923 -0.00221486   0.48194473 -0.20365323
8.616250e+08   0.47949220 -0.20025897   0.00278712 -0.00238023   0.00278712 -0.00238023   0.47949220 -0.20025897
8.617500e+08   0.47708652 -0.19682546   0.00273544 -0.00254695   0.00273544 -0.00254695   0.47708652 -0.19682546
8.618750e+08   0.47472844 -0.19335396   0.00267388 -0.00271445   0.00267388 -0.00271445   0.47472844 -0.19335396
8.620000e+08   0.47241864 -0.18984574   0.00260218 -0.00288214   0.00260218 -0.00288214   0.47241864 -0.18984574
8.621250e+08   0.47015775 -0.18630208   0.00252009 -0.00304941   0.00252009 -0.00304941   0.47015775 -0.18630208
8.622500e+08   0.46794634 -0.18272429   0.00242742 -0.00321560   0.00242742 -0.00321560   0.46794634 -0.18272429
8.623750e+08   0.46578493 -0.17911366   0.00232401 -0.00338002   0.00232401 -0.00338002   0.46578493 -0.17911366
8.625000e+08   0.46367396 -0.17547150   0.00220974 -0.00354196   0.00220974 -0.00354196   0.46367396 -0.17547150
8.626250e+08   0.46161384 -0.17179910   0.00208456 -0.00370069   0.00208456 -0.00370069   0.46161384 -0.17179910
8.627500e+08   0.45960490 -0.16809777   0.00194845 -0.00385546   0.00194845 -0.00385546   0.45960490 -0.16809777
8.628750e+08   0.45764743 -0.16436879   0.00180145 -0.00400548   0.00180145 -0.00400548   0.45764743 -0.16436879
8.630000e+08   0.45574167 -0.16061345   0.00164366 -0.00415000   0.00164366 -0.00415000   0.45574167 -0.16061345
8.631250e+08   0.45388778 -0.15683299   0.00147524 -0.00428820   0.00147524 -0.00428820   0.45388778 -0.15683299
8.632500e+08   0.45208589 -0.15302868   0.00129641 -0.00441930   0.00129641 -0.00441930   0.45208589 -0.15302868
8.633750e+08   0.45033610 -0.14920173   0.00110744 -0.00454251   0.00110744 -0.00454251   0.45033610 -0.14920173
8.635000e+08   0.44863842 -0.14535335   0.00090868 -0.00465703   0.00090868 -0.00465703   0.44863842 -0.14535335
8.636250e+08   0.44699284 -0.14148472   0.00070053 -0.00476211   0.00070053 -0.00476211   0.44699284 -0.14148472
8.637500e+08   0.44539932 -0.13759698   0.00048345 -0.00485698   0.00048345 -0.00485698   0.44539932 -0.13759698
8.638750e+08   0.44385774 -0.13369126   0.00025799 -0.00494090   0.00025799 -0.00494090   0.44385774 -0.13369126
8.640000e+08   0.44236800 -0.12976864   0.00002473 -0.00501318   0.00002473 -0.00501318   0.44236800 -0.12976864
8.641250e+08   0.44092991 -0.12583019  -0.00021568 -0.00507314  -0.00021568 -0.00507314   0.44092991 -0.12583019
8.642500e+08   0.43954328 -0.12187693  -0.00046252 -0.00512015  -0.00046252 -0.00512015   0.43954328 -0.12187693
8.643750e+08   0.43820788 -0.11790984  -0.00071502 -0.00515361  -0.00071502 -0.00515361   0.43820788 -0.11790984
8.645000e+08   0.43692346 -0.11392988  -0.00097237 -0.00517299  -0.00097237 -0.00517299   0.43692346 -0.11392988
8.646250e+08   0.43568975 -0.10993795  -0.00123369 -0.00517781  -0.00123369 -0.00517781   0.43568975 -0.10993795
8.647500e+08   0.43450646 -0.10593494  -0.00149806 -0.00516763  -0.00149806 -0.00516763   0.43450646 -0.10593494
8.648750e+08   0.43337326 -0.10192169  -0.00176453 -0.00514210  -0.00176453 -0.00514210   0.43337326 -0.10192169
8.650000e+08   0.43228983 -0.09789898  -0.00203210 -0.00510092  -0.00203210 -0.00510092   0.43228983 -0.09789898
8.651250e+08   0.43125584 -0.09386759  -0.00229974 -0.00504386  -0.00229974 -0.00504386   0.43125584 -0.09386759
8.652500e+08   0.43027093 -0.08982824  -0.00256641 -0.00497078  -0.00256641 -0.00497078   0.43027093 -0.08982824
8.653750e+08   0.42933476 -0.08578161  -0.00283102 -0.00488160  -0.00283102 -0.00488160   0.42933476 -0.08578161
8.655000e+08   0.42844697 -0.08172835  -0.00309249 -0.00477633  -0.00309249 -0.00477633   0.42844697 -0.08172835
8.656250e+08   0.42760719 -0.07766908  -0.00334972 -0.00465505  -0.00334972 -0.00465505   0.42760719 -0.07766908
8.657500e+08   0.42681508 -0.07360437  -0.00360162 -0.00451794  -0.00360162 -0.00451794   0.42681508 -0.07360437
8.658750e+08   0.42607028 -0.06953478  -0.00384709 -0.00436525  -0.00384709 -0.00436525   0.42607028 -0.06953478
8.660000e+08   0.42537245 -0.06546080  -0.00408506 -0.00419731  -0.00408506 -0.00419731   0.42537245 -0.06546080
8.661250e+08   0.42472124 -0.06138292  -0.00431447 -0.00401455  -0.00431447 -0.00401455   0.42472124 -0.06138292
8.662500e+08   0.42411633 -0.05730158  -0.00453428 -0.00381746  -0.00453428 -0.00381746   0.42411633 -0.05730158
8.663750e+08   0.42355741 -0.05321721  -0.00474349 -0.00360661  -0.00474349 -0.00360661   0.42355741 -0.05321721
8.665000e+08   0.42304418 -0.04913021  -0.00494115 -0.00338267  -0.00494115 -0.00338267   0.42304418 -0.04913021
8.666250e+08   0.42257634 -0.04504092  -0.00512633 -0.00314636  -0.00512633 -0.00314636   0.42257634 -0.04504092
8.667500e+08   0.42215363 -0.04094971  -0.00529818 -0.00289848  -0.00529818 -0.00289848   0.42215363 -0.04094971
8.668750e+08   0.42177580 -0.03685690  -0.00545588 -0.00263990  -0.00545588 -0.00263990   0.42177580 -0.03685690
8.670000e+08   0.42144262 -0.03276278  -0.00559870 -0.00237153  -0.00559870 -0.00237153   0.42144262 -0.03276278
8.671250e+08   0.42115387 -0.02866763  -0.00572596 -0.00209437  -0.00572596 -0.00209437   0.42115387 -0.02866763
8.672500e+08   0.42090938 -0.02457174  -0.00583706 -0.00180945  -0.00583706 -0.00180945   0.42090938 -0.02457174
8.673750e+08   0.42070897 -0.02047534  -0.00593146 -0.00151784  -0.00593146 -0.00151784   0.42070897 -0.02047534
8.675000e+08   0.42055250 -0.01637869  -0.00600874 -0.00122066  -0.00600874 -0.00122066   0.42055250 -0.01637869
8.676250e+08   0.42043986 -0.01228202  -0.00606852 -0.00091906  -0.00606852 -0.00091906   0.42043986 -0.01228202
8.677500e+08   0.42037095 -0.00818555  -0.00611053 -0.00061421  -0.00611053 -0.00061421   0.42037095 -0.00818555
8.678750e+08   0.42034570 -0.00408951  -0.00613459 -0.00030731  -0.00613459 -0.00030731   0.42034570 -0.00408951
8.680000e+08   0.42036407  0.00000590  -0.00614058  0.00000044  -0.00614058  0.00000044   0.42036407  0.00000590
8.681250e+08   0.42042604  0.00410046  -0.00612852  0.00030784  -0.00612852  0.00030784   0.42042604  0.00410046
8.682500e+08   0.42053162  0.00819394  -0.00609846  0.00061368  -0.00609846  0.00061368   0.42053162  0.00819394
8.683750e+08   0.42068083  0.01228613  -0.00605060  0.00091676  -0.00605060  0.00091676   0.42068083  0.01228613
8.685000e+08   0.42087373  0.01637681  -0.00598517  0.00121593  -0.00598517  0.00121593   0.42087373  0.01637681
8.686250e+08   0.42111041  0.02046574  -0.00590252  0.00151001  -0.00590252  0.00151001   0.42111041  0.02046574
8.687500e+08   0.42139096  0.02455268  -0.00580309  0.00179790  -0.00580309  0.00179790   0.42139096  0.02455268
8.688750e+08   0.42171551  0.02863738  -0.00568737  0.00207852  -0.00568737  0.00207852   0.42171551  0.02863738
8.690000e+08   0.42208421  0.03271957  -0.00555594  0.00235083  -0.00555594  0.00235083   0.42208421  0.03271957
8.691250e+08   0.42249723  0.03679897  -0.00540946  0.00261384  -0.00540946  0.00261384   0.42249723  0.03679897
8.692500e+08   0.42295476  0.04087528  -0.00524866  0.00286662  -0.00524866  0.00286662   0.42295476  0.04087528
8.693750e+08   0.42345701  0.04494818  -0.00507431  0.00310832  -0.00507431  0.00310832   0.42345701  0.04494818
8.695000e+08   0.42400421  0.04901734  -0.00488726  0.00333811  -0.00488726  0.00333811   0.42400421  0.04901734
8.696250e+08   0.42459659  0.05308238  -0.00468840  0.00355527  -0.00468840  0.00355527   0.42459659  0.05308238
8.697500e+08   0.42523442  0.05714293  -0.00447867  0.00375914  -0.00447867  0.00375914   0.42523442  0.05714293
8.698750e+08   0.42591796  0.06119856  -0.00425904  0.00394912  -0.00425904  0.00394912   0.42591796  0.06119856
8.700000e+08   0.42664751  0.06524884  -0.00403054  0.00412471  -0.00403054  0.00412471   0.42664751  0.06524884
8.701250e+08   0.42742334  0.06929330  -0.00379419  0.00428548  -0.00379419  0.00428548   0.42742334  0.06929330
8.702500e+08   0.42824576  0.07333144  -0.00355105  0.00443107  -0.00355105  0.00443107   0.42824576  0.07333144
8.703750e+08   0.42911507  0.07736272  -0.00330218  0.00456123  -0.00330218  0.00456123   0.42911507  0.07736272
8.705000e+08   0.43003158  0.08138659  -0.00304867  0.00467576  -0.00304867  0.00467576   0.43003158  0.08138659
8.706250e+08   0.43099560  0.08540243  -0.00279158  0.00477456  -0.00279158  0.00477456   0.43099560  0.08540243
8.707500e+08   0.43200744  0.08940963  -0.00253199  0.00485760  -0.00253199  0.00485760   0.43200744  0.08940963
8.708750e+08   0.43306739  0.09340751  -0.00227094  0.00492494  -0.00227094  0.00492494   0.43306739  0.09340751
8.710000e+08   0.43417576  0.09739537  -0.00200947  0.00497669  -0.00200947  0.00497669   0.43417576  0.09739537
8.711250e+08   0.43533283  0.10137247  -0.00174859  0.00501305  -0.00174859  0.00501305   0.43533283  0.10137247
8.712500e+08   0.43653888  0.10533805  -0.00148927  0.00503431  -0.00148927  0.00503431   0.43653888  0.10533805
8.713750e+08   0.43779416  0.10929128  -0.00123247  0.00504078  -0.00123247  0.00504078   0.43779416  0.10929128
8.715000e+08   0.43909892  0.11323132  -0.00097909  0.00503287  -0.00097909  0.00503287   0.43909892  0.11323132
8.716250e+08   0.44045339  0.11715729  -0.00072997  0.00501103  -0.00072997  0.00501103   0.44045339  0.11715729
8.717500e+08   0.44185777  0.12106829  -0.00048595  0.00497577  -0.00048595  0.00497577   0.44185777  0.12106829
8.718750e+08   0.44331223  0.12496335  -0.00024777  0.00492765  -0.00024777  0.00492765   0.44331223  0.12496335
8.720000e+08   0.44481691  0.12884150  -0.00001615  0.00486726  -0.00001615  0.00486726   0.44481691  0.12884150
8.721250e+08   0.44637195  0.13270172   0.00020826  0.00479524   0.00020826  0.00479524   0.44637195  0.13270172
8.722500e+08   0.44797742  0.13654298   0.00042488  0.00471226   0.00042488  0.00471226   0.44797742  0.13654298
8.723750e+08   0.44963337  0.14036419   0.00063317  0.00461903   0.00063317  0.00461903   0.44963337  0.14036419
8.725000e+08   0.45133980  0.14416427   0.00083266  0.00451626   0.00083266  0.00451626   0.45133980  0.14416427
8.726250e+08   0.45309670  0.14794208   0.00102293  0.00440469   0.00102293  0.00440469   0.45309670  0.14794208
8.727500e+08   0.45490399  0.15169649   0.00120364  0.00428507   0.00120364  0.00428507   0.45490399  0.15169649
8.728750e+08   0.45676154  0.15542634   0.00137449  0.00415817   0.00137449  0.00415817   0.45676154  0.15542634
8.730000e+08   0.45866921  0.15913042   0.00153525  0.00402474   0.00153525  0.00402474   0.45866921  0.15913042
8.731250e+08   0.46062676  0.16280756   0.00168575  0.00388554   0.00168575  0.00388554   0.46062676  0.16280756
8.732500e+08   0.46263395  0.16645654   0.00182587  0.00374133   0.00182587  0.00374133   0.46263395  0.16645654
8.733750e+08   0.46469046  0.17007614   0.00195555  0.00359285   0.00195555  0.00359285   0.46469046  0.17007614
8.735000e+08   0.46679593  0.17366514   0.00207478  0.00344082   0.00207478  0.00344082   0.46679593  0.17366514
8.736250e+08   0.46894993  0.17722230   0.00218359  0.00328596   0.00218359  0.00328596   0.46894993  0.17722230
8.737500e+08   0.47115200  0.18074641   0.00228208  0.00312894   0.00228208  0.00312894   0.47115200  0.18074641
8.738750e+08   0.47340161  0.18423623   0.00237037  0.00297045   0.00237037  0.00297045   0.47340161  0.18423623
8.740000e+08   0.47569817  0.18769055   0.00244863  0.00281110   0.00244863  0.00281110   0.47569817  0.18769055
8.741250e+08   0.47804106  0.19110816   0.00251708  0.00265152   0.00251708  0.00265152   0.47804106  0.19110816
8.742500e+08   0.48042959  0.19448787   0.00257595  0.00249227   0.00257595  0.00249227   0.48042959  0.19448787
8.743750e+08   0.48286301  0.19782850   0.00262552  0.00233390   0.00262552  0.00233390   0.48286301  0.19782850
8.745000e+08   0.48534052  0.20112890   0.00266609  0.00217693   0.00266609  0.00217693   0.48534052  0.20112890
8.746250e+08   0.48786128  0.20438792   0.00269798  0.00202182   0.00269798  0.00202182   0.48786128  0.20438792
8.747500e+08   0.49042440  0.20760446   0.00272154  0.00186902   0.00272154  0.00186902   0.49042440  0.20760446
8.748750e+08   0.49302891  0.21077745   0.00273715  0.00171893   0.00273715  0.00171893   0.49302891  0.21077745
8.750000e+08   0.49567384  0.21390583   0.00274516  0.00157192   0.00274516  0.00157192   0.49567384  0.21390583
8.751250e+08   0.49835813  0.21698859   0.00274599  0.00142832   0.00274599  0.00142832   0.49835813  0.21698859
8.752500e+08   0.50108069  0.22002476   0.00274001  0.00128842   0.00274001  0.00128842   0.50108069  0.22002476
8.753750e+08   0.50384041  0.22301342   0.00272765  0.00115250   0.00272765  0.00115250   0.50384041  0.22301342
8.755000e+08   0.50663612  0.22595365   0.00270930  0.00102078   0.00270930  0.00102078   0.50663612  0.22595365
8.756250e+08   0.50946661  0.22884463   0.00268538  0.00089345   0.00268538  0.00089345   0.50946661  0.22884463
8.757500e+08   0.51233064  0.23168555   0.00265629  0.00077068   0.00265629  0.00077068   0.51233064  0.23168555
8.758750e+08   0.51522695  0.23447565   0.00262243  0.00065261   0.00262243  0.00065261   0.51522695  0.23447565
8.760000e+08   0.51815423  0.23721424   0.00258420  0.00053933   0.00258420  0.00053933   0.51815423  0.23721424
8.761250e+08   0.52111116  0.23990067   0.00254199  0.00043092   0.00254199  0.00043092   0.52111116  0.23990067
8.762500e+08   0.52409640  0.24253434   0.00249618  0.00032744   0.00249618  0.00032744   0.52409640  0.24253434
8.763750e+08   0.52710857  0.24511470   0.00244713  0.00022891   0.00244713  0.00022891   0.52710857  0.24511470
8.765000e+08   0.53014629  0.24764127   0.00239521  0.00013534   0.00239521  0.00013534   0.53014629  0.24764127
8.766250e+08   0.53320816  0.25011360   0.00234077  0.00004670   0.00234077  0.00004670   0.53320816  0.25011360
8.767500e+08   0.53629277  0.25253133   0.00228412 -0.00003703   0.00228412 -0.00003703   0.53629277  0.25253133
8.768750e+08   0.53939871  0.25489411   0.00222560 -0.00011592   0.00222560 -0.00011592   0.53939871  0.25489411
8.770000e+08   0.54252454  0.25720168   0.00216550 -0.00019002   0.00216550 -0.00019002   0.54252454  0.25720168
8.771250e+08   0.54566886  0.25945383   0.00210410 -0.00025943   0.00210410 -0.00025943   0.54566886  0.25945383
8.772500e+08   0.54883022  0.26165039   0.00204168 -0.00032424   0.00204168 -0.00032424   0.54883022  0.26165039
8.773750e+08   0.55200721  0.26379126   0.00197850 -0.00038457   0.00197850 -0.00038457   0.55200721  0.26379126
8.775000e+08   0.55519842  0.26587637   0.00191480 -0.00044052   0.00191480 -0.00044052   0.55519842  0.26587637
8.776250e+08   0.55840244  0.26790572   0.00185079 -0.00049223   0.00185079 -0.00049223   0.55840244  0.26790572
8.777500e+08   0.56161786  0.26987937   0.00178669 -0.00053983   0.00178669 -0.00053983   0.56161786  0.26987937
8.778750e+08   0.56484332  0.27179740   0.00172269 -0.00058346   0.00172269 -0.00058346   0.56484332  0.27179740
8.780000e+08   0.56807744  0.27365997   0.00165897 -0.00062326   0.00165897 -0.00062326   0.56807744  0.27365997
8.781250e+08   0.57131887  0.27546725   0.00159569 -0.00065938   0.00159569 -0.00065938   0.57131887  0.27546725
8.782500e+08   0.57456629  0.27721950   0.00153300 -0.00069198   0.00153300 -0.00069198   0.57456629  0.27721950
8.783750e+08   0.57781839  0.27891698   0.00147104 -0.00072120   0.00147104 -0.00072120   0.57781839  0.27891698
8.785000e+08   0.58107388  0.28056003   0.00140992 -0.00074720   0.00140992 -0.00074720   0.58107388  0.28056003
8.786250e+08   0.58433150  0.28214900   0.00134977 -0.00077013   0.00134977 -0.00077013   0.58433150  0.28214900
8.787500e+08   0.58759002  0.28368430   0.00129067 -0.00079015   0.00129067 -0.00079015   0.58759002  0.28368430
8.788750e+08   0.59084824  0.28516636   0.00123272 -0.00080740   0.00123272 -0.00080740   0.59084824  0.28516636
8.790000e+08   0.59410498  0.28659566   0.00117598 -0.00082203   0.00117598 -0.00082203   0.59410498  0.28659566
8.791250e+08   0.59735909  0.28797270   0.00112053 -0.00083419   0.00112053 -0.00083419   0.59735909  0.28797270
8.792500e+08   0.60060945  0.28929801   0.00106641 -0.00084402   0.00106641 -0.00084402   0.60060945  0.28929801
8.793750e+08   0.60385498  0.29057217   0.00101368 -0.00085167   0.00101368 -0.00085167   0.60385498  0.29057217
8.795000e+08   0.60709463  0.29179577   0.00096237 -0.00085726   0.00096237 -0.00085726   0.60709463  0.29179577
8.796250e+08   0.61032738  0.29296943   0.00091251 -0.00086094   0.00091251 -0.00086094   0.61032738  0.29296943
8.797500e+08   0.61355224  0.29409378   0.00086412 -0.00086283   0.00086412 -0.00086283   0.61355224  0.29409378
8.798750e+08   0.61676825  0.29516949   0.00081723 -0.00086305   0.00081723 -0.00086305   0.61676825  0.29516949
8.800000e+08   0.61997451  0.29619724   0.00077183 -0.00086173   0.00077183 -0.00086173   0.61997451  0.29619724
8.801250e+08   0.62317011  0.29717774   0.00072794 -0.00085897   0.00072794 -0.00085897   0.62317011  0.29717774
8.802500e+08   0.62635423  0.29811170   0.00068555 -0.00085490   0.00068555 -0.00085490   0.62635423  0.29811170
8.803750e+08   0.62952602  0.29899986   0.00064465 -0.00084961   0.00064465 -0.00084961   0.62952602  0.29899986
8.805000e+08   0.63268472  0.29984296   0.00060524 -0.00084320   0.00060524 -0.00084320   0.63268472  0.29984296
8.806250e+08   0.63582956  0.30064176   0.00056729 -0.00083578   0.00056729 -0.00083578   0.63582956  0.30064176
8.807500e+08   0.63895984  0.30139702   0.00053080 -0.00082743   0.00053080 -0.00082743   0.63895984  0.30139702
8.808750e+08   0.64207488  0.30210952   0.00049574 -0.00081824   0.00049574 -0.00081824   0.64207488  0.30210952
8.810000e+08   0.64517401  0.30278004   0.00046209 -0.00080829   0.00046209 -0.00080829   0.64517401  0.30278004
8.811250e+08   0.64825662  0.30340938   0.00042982 -0.00079767   0.00042982 -0.00079767   0.64825662  0.30340938
8.812500e+08   0.65132213  0.30399831   0.00039890 -0.00078643   0.00039890 -0.00078643   0.65132213  0.30399831
8.813750e+08   0.65436997  0.30454765   0.00036931 -0.00077466   0.00036931 -0.00077466   0.65436997  0.30454765
8.815000e+08   0.65739963  0.30505818   0.00034101 -0.00076242   0.00034101 -0.00076242   0.65739963  0.30505818
8.816250e+08   0.66041060  0.30553071   0.00031398 -0.00074977   0.00031398 -0.00074977   0.66041060  0.30553071
8.817500e+08   0.66340243  0.30596603   0.00028816 -0.00073676   0.00028816 -0.00073676   0.66340243  0.30596603
8.818750e+08   0.66637467  0.30636494   0.00026354 -0.00072345   0.00026354 -0.00072345   0.66637467  0.30636494
8.820000e+08   0.66932691  0.30672823   0.00024008 -0.00070990   0.00024008 -0.00070990   0.66932691  0.30672823
8.821250e+08   0.67225877  0.30705670   0.00021775 -0.00069614   0.00021775 -0.00069614   0.67225877  0.30705670
8.822500e+08   0.67516990  0.30735113   0.00019650 -0.00068222   0.00019650 -0.00068222   0.67516990  0.30735113
8.823750e+08   0.67805997  0.30761230   0.00017630 -0.00066818   0.00017630 -0.00066818   0.67805997  0.30761230
8.825000e+08   0.68092867  0.30784100   0.00015712 -0.00065406   0.00015712 -0.00065406   0.68092867  0.30784100
8.826250e+08   0.68377572  0.30803800   0.00013892 -0.00063989   0.00013892 -0.00063989   0.68377572  0.30803800
8.827500e+08   0.68660086  0.30820405   0.00012166 -0.00062571   0.00012166 -0.00062571   0.68660086  0.30820405
8.828750e+08   0.68940386  0.30833992   0.00010532 -0.00061154   0.00010532 -0.00061154   0.68940386  0.30833992
8.830000e+08   0.69218450  0.30844635   0.00008986 -0.00059741   0.00008986 -0.00059741   0.69218450  0.30844635
8.831250e+08   0.69494261  0.30852410   0.00007524 -0.00058334   0.00007524 -0.00058334   0.69494261  0.30852410
8.832500e+08   0.69767799  0.30857388   0.00006143 -0.00056936   0.00006143 -0.00056936   0.69767799  0.30857388
8.833750e+08   0.70039051  0.30859642   0.00004840 -0.00055548   0.00004840 -0.00055548   0.70039051  0.30859642
8.835000e+08   0.70308003  0.30859243   0.00003612 -0.00054173   0.00003612 -0.00054173   0.70308003  0.30859243
8.836250e+08   0.70574644  0.30856263   0.00002455 -0.00052812   0.00002455 -0.00052812   0.70574644  0.30856263
8.837500e+08   0.70838964  0.30850769   0.00001367 -0.00051467   0.00001367 -0.00051467   0.70838964  0.30850769
8.838750e+08   0.71100956  0.30842832   0.00000345 -0.00050139   0.00000345 -0.00050139   0.71100956  0.30842832
8.840000e+08   0.71360612  0.30832516  -0.00000615 -0.00048829  -0.00000615 -0.00048829   0.71360612  0.30832516
8.841250e+08   0.71617928  0.30819890  -0.00001515 -0.00047538  -0.00001515 -0.00047538   0.71617928  0.30819890
8.842500e+08   0.71872901  0.30805017  -0.00002357 -0.00046267  -0.00002357 -0.00046267   0.71872901  0.30805017
8.843750e+08   0.72125530  0.30787962  -0.00003145 -0.00045016  -0.00003145 -0.00045016   0.72125530  0.30787962
8.845000e+08   0.72375812  0.30768787  -0.00003880 -0.00043788  -0.00003880 -0.00043788   0.72375812  0.30768787
8.846250e+08   0.72623749  0.30747555  -0.00004566 -0.00042581  -0.00004566 -0.00042581   0.72623749  0.30747555
8.847500e+08   0.72869344  0.30724325  -0.00005205 -0.00041397  -0.00005205 -0.00041397   0.72869344  0.30724325
8.848750e+08   0.73112599  0.30699157  -0.00005798 -0.00040236  -0.00005798 -0.00040236   0.73112599  0.30699157
8.850000e+08   0.73353518  0.30672110  -0.00006349 -0.00039098  -0.00006349 -0.00039098   0.73353518  0.30672110
8.851250e+08   0.73592107  0.30643239  -0.00006858 -0.00037984  -0.00006858 -0.00037984   0.73592107  0.30643239
8.852500e+08   0.73828372  0.30612602  -0.00007329 -0.00036893  -0.00007329 -0.00036893   0.73828372  0.30612602
8.853750e+08   0.74062320  0.30580252  -0.00007764 -0.00035826  -0.00007764 -0.00035826   0.74062320  0.30580252
8.855000e+08   0.74293960  0.30546244  -0.00008163 -0.00034783  -0.00008163 -0.00034783   0.74293960  0.30546244
8.856250e+08   0.74523300  0.30510630  -0.00008529 -0.00033764  -0.00008529 -0.00033764   0.74523300  0.30510630
8.857500e+08   0.74750350  0.30473462  -0.00008864 -0.00032768  -0.00008864 -0.00032768   0.74750350  0.30473462
8.858750e+08   0.74975121  0.30434788  -0.00009169 -0.00031796  -0.00009169 -0.00031796   0.74975121  0.30434788
8.860000e+08   0.75197624  0.30394660  -0.00009446 -0.00030847  -0.00009446 -0.00030847   0.75197624  0.30394660
8.861250e+08   0.75417870  0.30353124  -0.00009696 -0.00029922  -0.00009696 -0.00029922   0.75417870  0.30353124
8.862500e+08   0.75635873  0.30310227  -0.00009922 -0.00029019  -0.00009922 -0.00029019   0.75635873  0.30310227
8.863750e+08   0.75851646  0.30266016  -0.00010123 -0.00028140  -0.00010123 -0.00028140   0.75851646  0.30266016
8.865000e+08   0.76065201  0.30220535  -0.00010302 -0.00027283  -0.00010302 -0.00027283   0.76065201  0.30220535
8.866250e+08   0.76276554  0.30173828  -0.00010460 -0.00026448  -0.00010460 -0.00026448   0.76276554  0.30173828
8.867500e+08   0.76485719  0.30125938  -0.00010598 -0.00025635  -0.00010598 -0.00025635   0.76485719  0.30125938
8.868750e+08   0.76692710  0.30076905  -0.00010717 -0.00024843  -0.00010717 -0.00024843   0.76692710  0.30076905
8.870000e+08   0.76897544  0.30026772  -0.00010818 -0.00024073  -0.00010818 -0.00024073   0.76897544  0.30026772
8.871250e+08   0.77100237  0.29975577  -0.00010903 -0.00023324  -0.00010903 -0.00023324   0.77100237  0.29975577
8.872500e+08   0.77300804  0.29923360  -0.00010972 -0.00022595  -0.00010972 -0.00022595   0.77300804  0.29923360
8.873750e+08   0.77499263  0.29870157  -0.00011027 -0.00021887  -0.00011027 -0.00021887   0.77499263  0.29870157
8.875000e+08   0.77695629  0.29816006  -0.00011068 -0.00021198  -0.00011068 -0.00021198   0.77695629  0.29816006
8.876250e+08   0.77889921  0.29760942  -0.00011096 -0.00020528  -0.00011096 -0.00020528   0.77889921  0.29760942
8.877500e+08   0.78082155  0.29705001  -0.00011111 -0.00019878  -0.00011111 -0.00019878   0.78082155  0.29705001
8.878750e+08   0.78272349  0.29648217  -0.00011116 -0.00019246  -0.00011116 -0.00019246   0.78272349  0.29648217
8.880000e+08   0.78460521  0.29590622  -0.00011110 -0.00018632  -0.00011110 -0.00018632   0.78460521  0.29590622
8.881250e+08   0.78646688  0.29532249  -0.00011094 -0.00018035  -0.00011094 -0.00018035   0.78646688  0.29532249
8.882500e+08   0.78830870  0.29473129  -0.00011068 -0.00017457  -0.00011068 -0.00017457   0.78830870  0.29473129
8.883750e+08   0.79013083  0.29413293  -0.00011035 -0.00016895  -0.00011035 -0.00016895   0.79013083  0.29413293
8.885000e+08   0.79193347  0.29352772  -0.00010993 -0.00016349  -0.00010993 -0.00016349   0.79193347  0.29352772
8.886250e+08   0.79371680  0.29291592  -0.00010944 -0.00015820  -0.00010944 -0.00015820   0.79371680  0.29291592
8.887500e+08   0.79548100  0.29229784  -0.00010888 -0.00015307  -0.00010888 -0.00015307   0.79548100  0.29229784
8.888750e+08   0.79722626  0.29167374  -0.00010826 -0.00014809  -0.00010826 -0.00014809   0.79722626  0.29167374
8.890000e+08   0.79895276  0.29104389  -0.00010758 -0.00014325  -0.00010758 -0.00014325   0.79895276  0.29104389
8.891250e+08   0.80066070  0.29040856  -0.00010684 -0.00013857  -0.00010684 -0.00013857   0.80066070  0.29040856
8.892500e+08   0.80235026  0.28976798  -0.00010606 -0.00013402  -0.00010606 -0.00013402   0.80235026  0.28976798
8.893750e+08   0.80402162  0.28912242  -0.00010523 -0.00012962  -0.00010523 -0.00012962   0.80402162  0.28912242
8.895000e+08   0.80567498  0.28847210  -0.00010436 -0.00012535  -0.00010436 -0.00012535   0.80567498  0.28847210
8.896250e+08   0.80731052  0.28781727  -0.00010345 -0.00012120  -0.00010345 -0.00012120   0.80731052  0.28781727
8.897500e+08   0.80892842  0.28715813  -0.00010251 -0.00011719  -0.00010251 -0.00011719   0.80892842  0.28715813
8.898750e+08   0.81052888  0.28649493  -0.00010153 -0.00011330  -0.00010153 -0.00011330   0.81052888  0.28649493
8.900000e+08   0.81211207  0.28582786  -0.00010053 -0.00010953  -0.00010053 -0.00010953   0.81211207  0.28582786
8.901250e+08   0.81367819  0.28515714  -0.00009950 -0.00010588  -0.00009950 -0.00010588   0.81367819  0.28515714
8.902500e+08   0.81522742  0.28448296  -0.00009845 -0.00010234  -0.00009845 -0.00010234   0.81522742  0.28448296
8.903750e+08   0.81675994  0.28380552  -0.00009738 -0.00009891  -0.00009738 -0.00009891   0.81675994  0.28380552
8.905000e+08   0.81827594  0.28312502  -0.00009629 -0.00009559  -0.00009629 -0.00009559   0.81827594  0.28312502
8.906250e+08   0.81977560  0.28244162  -0.00009518 -0.00009237  -0.00009518 -0.00009237   0.81977560  0.28244162
8.907500e+08   0.82125909  0.28175553  -0.00009407 -0.00008926  -0.00009407 -0.00008926   0.82125909  0.28175553
8.908750e+08   0.82272660  0.28106689  -0.00009294 -0.00008624  -0.00009294 -0.00008624   0.82272660  0.28106689
8.910000e+08   0.82417832  0.28037590  -0.00009180 -0.00008332  -0.00009180 -0.00008332   0.82417832  0.28037590
8.911250e+08   0.82561441  0.27968270  -0.00009065 -0.00008049  -0.00009065 -0.00008049   0.82561441  0.27968270
8.912500e+08   0.82703505  0.27898746  -0.00008950 -0.00007775  -0.00008950 -0.00007775   0.82703505  0.27898746
8.913750e+08   0.82844042  0.27829033  -0.00008834 -0.00007509  -0.00008834 -0.00007509   0.82844042  0.27829033
8.915000e+08   0.82983070  0.27759146  -0.00008718 -0.00007252  -0.00008718 -0.00007252   0.82983070  0.27759146
8.916250e+08   0.83120606  0.27689099  -0.00008602 -0.00007004  -0.00008602 -0.00007004   0.83120606  0.27689099
8.917500e+08   0.83256666  0.27618907  -0.00008486 -0.00006763  -0.00008486 -0.00006763   0.83256666  0.27618907
8.918750e+08   0.83391269  0.27548583  -0.00008370 -0.00006530  -0.00008370 -0.00006530   0.83391269  0.27548583
8.920000e+08   0.83524430  0.27478140  -0.00008254 -0.00006304  -0.00008254 -0.00006304   0.83524430  0.27478140
8.921250e+08   0.83656168  0.27407591  -0.00008138 -0.00006086  -0.00008138 -0.00006086   0.83656168  0.27407591
8.922500e+08   0.83786498  0.27336949  -0.00008023 -0.00005875  -0.00008023 -0.00005875   0.83786498  0.27336949
8.923750e+08   0.83915436  0.27266225  -0.00007908 -0.00005670  -0.00007908 -0.00005670   0.83915436  0.27266225
8.925000e+08   0.84043000  0.27195431  -0.00007794 -0.00005472  -0.00007794 -0.00005472   0.84043000  0.27195431
8.926250e+08   0.84169205  0.27124579  -0.00007680 -0.00005281  -0.00007680 -0.00005281   0.84169205  0.27124579
8.927500e+08   0.84294068  0.27053679  -0.00007567 -0.00005095  -0.00007567 -0.00005095   0.84294068  0.27053679
8.928750e+08   0.84417604  0.26982742  -0.00007455 -0.00004916  -0.00007455 -0.00004916   0.84417604  0.26982742
8.930000e+08   0.84539830  0.26911777  -0.00007344 -0.00004743  -0.00007344 -0.00004743   0.84539830  0.26911777
8.931250e+08   0.84660760  0.26840796  -0.00007233 -0.00004575  -0.00007233 -0.00004575   0.84660760  0.26840796
8.932500e+08   0.84780410  0.26769807  -0.00007123 -0.00004412  -0.00007123 -0.00004412   0.84780410  0.26769807
8.933750e+08   0.84898796  0.26698821  -0.00007015 -0.00004255  -0.00007015 -0.00004255   0.84898796  0.26698821
8.935000e+08   0.85015932  0.26627845  -0.00006907 -0.00004103  -0.00006907 -0.00004103   0.85015932  0.26627845
8.936250e+08   0.85131834  0.26556888  -0.00006800 -0.00003956  -0.00006800 -0.00003956   0.85131834  0.26556888
8.937500e+08   0.85246516  0.26485959  -0.00006694 -0.00003814  -0.00006694 -0.00003814   0.85246516  0.26485959
8.938750e+08   0.85359993  0.26415067  -0.00006590 -0.00003676  -0.00006590 -0.00003676   0.85359993  0.26415067
8.940000e+08   0.85472279  0.26344218  -0.00006486 -0.00003543  -0.00006486 -0.00003543   0.85472279  0.26344218
8.941250e+08   0.85583389  0.26273421  -0.00006384 -0.00003414  -0.00006384 -0.00003414   0.85583389  0.26273421
8.942500e+08   0.85693337  0.26202683  -0.00006283 -0.00003289  -0.00006283 -0.00003289   0.85693337  0.26202683
8.943750e+08   0.85802138  0.26132011  -0.00006183 -0.00003169  -0.00006183 -0.00003169   0.85802138  0.26132011
8.945000e+08   0.85909803  0.26061411  -0.00006084 -0.00003052  -0.00006084 -0.00003052   0.85909803  0.26061411
8.946250e+08   0.86016349  0.25990891  -0.00005987 -0.00002940  -0.00005987 -0.00002940   0.86016349  0.25990891
8.947500e+08   0.86121787  0.25920457  -0.00005890 -0.00002831  -0.00005890 -0.00002831   0.86121787  0.25920457
8.948750e+08   0.86226132  0.25850115  -0.00005795 -0.00002725  -0.00005795 -0.00002725   0.86226132  0.25850115
8.950000e+08   0.86329396  0.25779870  -0.00005701 -0.00002623  -0.00005701 -0.00002623   0.86329396  0.25779870
8.951250e+08   0.86431594  0.25709730  -0.00005609 -0.00002525  -0.00005609 -0.00002525   0.86431594  0.25709730
8.952500e+08   0.86532736  0.25639699  -0.00005518 -0.00002429  -0.00005518 -0.00002429   0.86532736  0.25639699
8.953750e+08   0.86632838  0.25569782  -0.00005427 -0.00002337  -0.00005427 -0.00002337   0.86632838  0.25569782
8.955000e+08   0.86731910  0.25499985  -0.00005339 -0.00002248  -0.00005339 -0.00002248   0.86731910  0.25499985
8.956250e+08   0.86829965  0.25430313  -0.00005251 -0.00002162  -0.00005251 -0.00002162   0.86829965  0.25430313
8.957500e+08   0.86927017  0.25360770  -0.00005165 -0.00002079  -0.00005165 -0.00002079   0.86927017  0.25360770
8.958750e+08   0.87023076  0.25291362  -0.00005079 -0.00001998  -0.00005079 -0.00001998   0.87023076  0.25291362
8.960000e+08   0.87118155  0.25222092  -0.00004996 -0.00001920  -0.00004996 -0.00001920   0.87118155  0.25222092
8.961250e+08   0.87212267  0.25152965  -0.00004913 -0.00001845  -0.00004913 -0.00001845   0.87212267  0.25152965
8.962500e+08   0.87305421  0.25083985  -0.00004831 -0.00001772  -0.00004831 -0.00001772   0.87305421  0.25083985
8.963750e+08   0.87397631  0.25015156  -0.00004751 -0.00001702  -0.00004751 -0.00001702   0.87397631  0.25015156
8.965000e+08   0.87488907  0.24946481  -0.00004672 -0.00001634  -0.00004672 -0.00001634   0.87488907  0.24946481
8.966250e+08   0.87579261  0.24877965  -0.00004595 -0.00001568  -0.00004595 -0.00001568   0.87579261  0.24877965
8.967500e+08   0.87668704  0.24809611  -0.00004518 -0.00001504  -0.00004518 -0.00001504   0.87668704  0.24809611
8.968750e+08   0.87757247  0.24741423  -0.00004443 -0.00001443  -0.00004443 -0.00001443   0.87757247  0.24741423
8.970000e+08   0.87844901  0.24673403  -0.00004368 -0.00001383  -0.00004368 -0.00001383   0.87844901  0.24673403
8.971250e+08   0.87931676  0.24605554  -0.00004295 -0.00001326  -0.00004295 -0.00001326   0.87931676  0.24605554
8.972500e+08   0.88017584  0.24537881  -0.00004224 -0.00001271  -0.00004224 -0.00001271   0.88017584  0.24537881
8.973750e+08   0.88102634  0.24470384  -0.00004153 -0.00001217  -0.00004153 -0.00001217   0.88102634  0.24470384
8.975000e+08   0.88186837  0.24403068  -0.00004083 -0.00001165  -0.00004083 -0.00001165   0.88186837  0.24403068
8.976250e+08   0.88270204  0.24335935  -0.00004015 -0.00001115  -0.00004015 -0.00001115   0.88270204  0.24335935
8.977500e+08   0.88352743  0.24268988  -0.00003947 -0.00001067  -0.00003947 -0.00001067   0.88352743  0.24268988
8.978750e+08   0.88434466  0.24202228  -0.00003881 -0.00001020  -0.00003881 -0.00001020   0.88434466  0.24202228
8.980000e+08   0.88515381  0.24135658  -0.00003816 -0.00000975  -0.00003816 -0.00000975   0.88515381  0.24135658
8.981250e+08   0.88595499  0.24069281  -0.00003752 -0.00000931  -0.00003752 -0.00000931   0.88595499  0.24069281
8.982500e+08   0.88674830  0.24003098  -0.00003689 -0.00000889  -0.00003689 -0.00000889   0.88674830  0.24003098
8.983750e+08   0.88753382  0.23937111  -0.00003627 -0.00000848  -0.00003627 -0.00000848   0.88753382  0.23937111
8.985000e+08   0.88831164  0.23871323  -0.00003566 -0.00000809  -0.00003566 -0.00000809   0.88831164  0.23871323
8.986250e+08   0.88908187  0.23805734  -0.00003506 -0.00000771  -0.00003506 -0.00000771   0.88908187  0.23805734
8.987500e+08   0.88984460  0.23740348  -0.00003447 -0.00000734  -0.00003447 -0.00000734   0.88984460  0.23740348
8.988750e+08   0.89059990  0.23675165  -0.00003389 -0.00000699  -0.00003389 -0.00000699   0.89059990  0.23675165
8.990000e+08   0.89134787  0.23610186  -0.00003333 -0.00000665  -0.00003333 -0.00000665   0.89134787  0.23610186
8.991250e+08   0.89208860  0.23545415  -0.00003277 -0.00000632  -0.00003277 -0.00000632   0.89208860  0.23545415
8.992500e+08   0.89282217  0.23480851  -0.00003222 -0.00000600  -0.00003222 -0.00000600   0.89282217  0.23480851
8.993750e+08   0.89354867  0.23416496  -0.00003168 -0.00000569  -0.00003168 -0.00000569   0.89354867  0.23416496
8.995000e+08   0.89426818  0.23352351  -0.00003114 -0.00000539  -0.00003114 -0.00000539   0.89426818  0.23352351
8.996250e+08   0.89498079  0.23288419  -0.00003062 -0.00000511  -0.00003062 -0.00000511   0.89498079  0.23288419
8.997500e+08   0.89568657  0.23224698  -0.00003011 -0.00000483  -0.00003011 -0.00000483   0.89568657  0.23224698
8.998750e+08   0.89638561  0.23161192  -0.00002960 -0.00000456  -0.00002960 -0.00000456   0.89638561  0.23161192
9.000000e+08   0.89707798  0.23097899  -0.00002911 -0.00000430  -0.00002911 -0.00000430   0.89707798  0.23097899
9.001250e+08   0.89776377  0.23034823  -0.00002862 -0.00000405  -0.00002862 -0.00000405   0.89776377  0.23034823
9.002500e+08   0.89844305  0.22971963  -0.00002814 -0.00000381  -0.00002814 -0.00000381   0.89844305  0.22971963
9.003750e+08   0.89911590  0.22909320  -0.00002767 -0.00000358  -0.00002767 -0.00000358   0.89911590  0.22909320
9.005000e+08   0.89978239  0.22846894  -0.00002721 -0.00000336  -0.00002721 -0.00000336   0.89978239  0.22846894
9.006250e+08   0.90044261  0.22784687  -0.00002676 -0.00000314  -0.00002676 -0.00000314   0.90044261  0.22784687
9.007500e+08   0.90109661  0.22722700  -0.00002631 -0.00000293  -0.00002631 -0.00000293   0.90109661  0.22722700
9.008750e+08   0.90174447  0.22660932  -0.00002587 -0.00000273  -0.00002587 -0.00000273   0.90174447  0.22660932
9.010000e+08   0.90238628  0.22599384  -0.00002544 -0.00000254  -0.00002544 -0.00000254   0.90238628  0.22599384
9.011250e+08   0.90302208  0.22538056  -0.00002502 -0.00000235  -0.00002502 -0.00000235   0.90302208  0.22538056
9.012500e+08   0.90365197  0.22476950  -0.00002460 -0.00000217  -0.00002460 -0.00000217   0.90365197  0.22476950
9.013750e+08   0.90427600  0.22416065  -0.00002419 -0.00000200  -0.00002419 -0.00000200   0.90427600  0.22416065
9.015000e+08   0.90489424  0.22355401  -0.00002379 -0.00000183  -0.00002379 -0.00000183   0.90489424  0.22355401
9.016250e+08   0.90550676  0.22294960  -0.00002340 -0.00000167  -0.00002340 -0.00000167   0.90550676  0.22294960
9.017500e+08   0.90611362  0.22234741  -0.00002301 -0.00000151  -0.00002301 -0.00000151   0.90611362  0.22234741
9.018750e+08   0.90671490  0.22174744  -0.00002263 -0.00000136  -0.00002263 -0.00000136   0.90671490  0.22174744
9.020000e+08   0.90731065  0.22114969  -0.00002226 -0.00000122  -0.00002226 -0.00000122   0.90731065  0.22114969
9.021250e+08   0.90790094  0.22055417  -0.00002189 -0.00000108  -0.00002189 -0.00000108   0.90790094  0.22055417
9.022500e+08   0.90848583  0.21996088  -0.00002153 -0.00000095  -0.00002153 -0.00000095   0.90848583  0.21996088
9.023750e+08   0.90906539  0.21936982  -0.00002117 -0.00000082  -0.00002117 -0.00000082   0.90906539  0.21936982
9.025000e+08   0.90963967  0.21878098  -0.00002083 -0.00000069  -0.00002083 -0.00000069   0.90963967  0.21878098
9.026250e+08   0.91020873  0.21819437  -0.00002048 -0.00000057  -0.00002048 -0.00000057   0.91020873  0.21819437
9.027500e+08   0.91077263  0.21760999  -0.00002015 -0.00000046  -0.00002015 -0.00000046   0.91077263  0.21760999
9.028750e+08   0.91133144  0.21702783  -0.00001982 -0.00000035  -0.00001982 -0.00000035   0.91133144  0.21702783
9.030000e+08   0.91188521  0.21644789  -0.00001949 -0.00000024  -0.00001949 -0.00000024   0.91188521  0.21644789
9.031250e+08   0.91243399  0.21587018  -0.00001917 -0.00000014  -0.00001917 -0.00000014   0.91243399  0.21587018
9.032500e+08   0.91297785  0.21529468  -0.00001886 -0.00000004  -0.00001886 -0.00000004   0.91297785  0.21529468
9.033750e+08   0.91351684  0.21472141  -0.00001855  0.00000005  -0.00001855  0.00000005   0.91351684  0.21472141
9.035000e+08   0.91405102  0.21415035  -0.00001825  0.00000014  -0.00001825  0.00000014   0.91405102  0.21415035
9.036250e+08   0.91458043  0.21358151  -0.00001795  0.00000023  -0.00001795  0.00000023   0.91458043  0.21358151
9.037500e+08   0.91510513  0.21301487  -0.00001766  0.00000032  -0.00001766  0.00000032   0.91510513  0.21301487
9.038750e+08   0.91562518  0.21245045  -0.00001738  0.00000040  -0.00001738  0.00000040   0.91562518  0.21245045
9.040000e+08   0.91614062  0.21188822  -0.00001709  0.00000047  -0.00001709  0.00000047   0.91614062  0.21188822
9.041250e+08   0.91665152  0.21132820  -0.00001682  0.00000055  -0.00001682  0.00000055   0.91665152  0.21132820
9.042500e+08   0.91715791  0.21077037  -0.00001655  0.00000062  -0.00001655  0.00000062   0.91715791  0.21077037
9.043750e+08   0.91765985  0.21021474  -0.00001628  0.00000069  -0.00001628  0.00000069   0.91765985  0.21021474
9.045000e+08   0.91815739  0.20966130  -0.00001602  0.00000075  -0.00001602  0.00000075   0.91815739  0.20966130
9.046250e+08   0.91865058  0.20911004  -0.00001576  0.00000082  -0.00001576  0.00000082   0.91865058  0.20911004
9.047500e+08   0.91913947  0.20856096  -0.00001551  0.00000088  -0.00001551  0.00000088   0.91913947  0.20856096
9.048750e+08   0.91962409  0.20801405  -0.00001526  0.00000093  -0.00001526  0.00000093   0.91962409  0.20801405
9.050000e+08   0.92010451  0.20746932  -0.00001501  0.00000099  -0.00001501  0.00000099   0.92010451  0.20746932
9.051250e+08   0.92058077  0.20692675  -0.00001477  0.00000104  -0.00001477  0.00000104   0.92058077  0.20692675
9.052500e+08   0.92105291  0.20638633  -0.00001454  0.00000109  -0.00001454  0.00000109   0.92105291  0.20638633
9.053750e+08   0.92152097  0.20584808  -0.00001431  0.00000114  -0.00001431  0.00000114   0.92152097  0.20584808
9.055000e+08   0.92198501  0.20531197  -0.00001408  0.00000119  -0.00001408  0.00000119   0.92198501  0.20531197
9.056250e+08   0.92244506  0.20477801  -0.00001385  0.00000123  -0.00001385  0.00000123   0.92244506  0.20477801
9.057500e+08   0.92290117  0.20424618  -0.00001363  0.00000127  -0.00001363  0.00000127   0.92290117  0.20424618
9.058750e+08   0.92335339  0.20371648  -0.00001342  0.00000131  -0.00001342  0.00000131   0.92335339  0.20371648
9.060000e+08   0.92380175  0.20318891  -0.00001321  0.00000135  -0.00001321  0.00000135   0.92380175  0.20318891
9.061250e+08   0.92424630  0.20266346  -0.00001300  0.00000139  -0.00001300  0.00000139   0.92424630  0.20266346
9.062500e+08   0.92468708  0.20214012  -0.00001279  0.00000142  -0.00001279  0.00000142   0.92468708  0.20214012
9.063750e+08   0.92512412  0.20161889  -0.00001259  0.00000145  -0.00001259  0.00000145   0.92512412  0.20161889
9.065000e+08   0.92555747  0.20109976  -0.00001239  0.00000149  -0.00001239  0.00000149   0.92555747  0.20109976
9.066250e+08   0.92598718  0.20058272  -0.00001220  0.00000151  -0.00001220  0.00000151   0.92598718  0.20058272
9.067500e+08   0.92641327  0.20006777  -0.00001201  0.00000154  -0.00001201  0.00000154   0.92641327  0.20006777
9.068750e+08   0.92683579  0.19955490  -0.00001182  0.00000157  -0.00001182  0.00000157   0.92683579  0.19955490
9.070000e+08   0.92725477  0.19904410  -0.00001164  0.00000159  -0.00001164  0.00000159   0.92725477  0.19904410
9.071250e+08   0.92767025  0.19853537  -0.00001145  0.00000162  -0.00001145  0.00000162   0.92767025  0.19853537
9.072500e+08   0.92808228  0.19802870  -0.00001128  0.00000164  -0.00001128  0.00000164   0.92808228  0.19802870
9.073750e+08   0.92849088  0.19752408  -0.00001110  0.00000166  -0.00001110  0.00000166   0.92849088  0.19752408
9.075000e+08   0.92889610  0.19702150  -0.00001093  0.00000168  -0.00001093  0.00000168   0.92889610  0.19702150
9.076250e+08   0.92929796  0.19652096  -0.00001076  0.00000170  -0.00001076  0.00000170   0.92929796  0.19652096
9.077500e+08   0.92969651  0.19602245  -0.00001059  0.00000172  -0.00001059  0.00000172   0.92969651  0.19602245
9.078750e+08   0.93009178  0.19552597  -0.00001043  0.00000174  -0.00001043  0.00000174   0.93009178  0.19552597
9.080000e+08   0.93048380  0.19503150  -0.00001027  0.00000175  -0.00001027  0.00000175   0.93048380  0.19503150
9.081250e+08   0.93087261  0.19453903  -0.00001011  0.00000177  -0.00001011  0.00000177   0.93087261  0.19453903
9.082500e+08   0.93125824  0.19404857  -0.00000996  0.00000178  -0.00000996  0.00000178   0.93125824  0.19404857
9.083750e+08   0.93164073  0.19356010  -0.00000980  0.00000179  -0.00000980  0.00000179   0.93164073  0.19356010
9.085000e+08   0.93202011  0.19307362  -0.00000965  0.00000180  -0.00000965  0.00000180   0.93202011  0.19307362
9.086250e+08   0.93239640  0.19258911  -0.00000951  0.00000181  -0.00000951  0.00000181   0.93239640  0.19258911
9.087500e+08   0.93276965  0.19210658  -0.00000936  0.00000182  -0.00000936  0.00000182   0.93276965  0.19210658
9.088750e+08   0.93313988  0.19162600  -0.00000922  0.00000183  -0.00000922  0.00000183   0.93313988  0.19162600
9.090000e+08   0.93350713  0.19114738  -0.00000908  0.00000184  -0.00000908  0.00000184   0.93350713  0.19114738
9.091250e+08   0.93387143  0.19067070  -0.00000894  0.00000185  -0.00000894  0.00000185   0.93387143  0.19067070
9.092500e+08   0.93423280  0.19019597  -0.00000881  0.00000186  -0.00000881  0.00000186   0.93423280  0.19019597
9.093750e+08   0.93459128  0.18972316  -0.00000867  0.00000186  -0.00000867  0.00000186   0.93459128  0.18972316
9.095000e+08   0.93494689  0.18925228  -0.00000854  0.00000187  -0.00000854  0.00000187   0.93494689  0.18925228
9.096250e+08   0.93529967  0.18878331  -0.00000841  0.00000187  -0.00000841  0.00000187   0.93529967  0.18878331
9.097500e+08   0.93564965  0.18831625  -0.00000829  0.00000187  -0.00000829  0.00000187   0.93564965  0.18831625
9.098750e+08   0.93599685  0.18785108  -0.00000816  0.00000188  -0.00000816  0.00000188   0.93599685  0.18785108
9.100000e+08   0.93634130  0.18738781  -0.00000804  0.00000188  -0.00000804  0.00000188   0.93634130  0.18738781
9.101250e+08   0.93668303  0.18692642  -0.00000792  0.00000188  -0.00000792  0.00000188   0.93668303  0.18692642
9.102500e+08   0.93702207  0.18646690  -0.00000780  0.00000188  -0.00000780  0.00000188   0.93702207  0.18646690
9.103750e+08   0.93735845  0.18600925  -0.00000768  0.00000189  -0.00000768  0.00000189   0.93735845  0.18600925
9.105000e+08   0.93769219  0.18555346  -0.00000757  0.00000189  -0.00000757  0.00000189   0.93769219  0.18555346
9.106250e+08   0.93802331  0.18509952  -0.00000746  0.00000189  -0.00000746  0.00000189   0.93802331  0.18509952
9.107500e+08   0.93835185  0.18464742  -0.00000735  0.00000189  -0.00000735  0.00000189   0.93835185  0.18464742
9.108750e+08   0.93867783  0.18419716  -0.00000724  0.00000188  -0.00000724  0.00000188   0.93867783  0.18419716
9.110000e+08   0.93900128  0.18374872  -0.00000713  0.00000188  -0.00000713  0.00000188   0.93900128  0.18374872
9.111250e+08   0.93932222  0.18330210  -0.00000703  0.00000188  -0.00000703  0.00000188   0.93932222  0.18330210
9.112500e+08   0.93964068  0.18285729  -0.00000692  0.00000188  -0.00000692  0.00000188   0.93964068  0.18285729
9.113750e+08   0.93995668  0.18241428  -0.00000682  0.00000188  -0.00000682  0.00000188   0.93995668  0.18241428
9.115000e+08   0.94027025  0.18197306  -0.00000672  0.00000187  -0.00000672  0.00000187   0.94027025  0.18197306
9.116250e+08   0.94058140  0.18153363  -0.00000662  0.00000187  -0.00000662  0.00000187   0.94058140  0.18153363
9.117500e+08   0.94089017  0.18109598  -0.00000653  0.00000187  -0.00000653  0.00000187   0.94089017  0.18109598
9.118750e+08   0.94119658  0.18066010  -0.00000643  0.00000186  -0.00000643  0.00000186   0.94119658  0.18066010
9.120000e+08   0.94150065  0.18022597  -0.00000634  0.00000186  -0.00000634  0.00000186   0.94150065  0.18022597
9.121250e+08   0.94180241  0.17979361  -0.00000625  0.00000185  -0.00000625  0.00000185   0.94180241  0.17979361
9.122500e+08   0.94210187  0.17936298  -0.00000615  0.00000185  -0.00000615  0.00000185   0.94210187  0.17936298
9.123750e+08   0.94239906  0.17893409  -0.00000607  0.00000184  -0.00000607  0.00000184   0.94239906  0.17893409
9.125000e+08   0.94269401  0.17850693  -0.00000598  0.00000184  -0.00000598  0.00000184   0.94269401  0.17850693
9.126250e+08   0.94298673  0.17808150  -0.00000589  0.00000183  -0.00000589  0.00000183   0.94298673  0.17808150
9.127500e+08   0.94327724  0.17765777  -0.00000581  0.00000183  -0.00000581  0.00000183   0.94327724  0.17765777
9.128750e+08   0.94356557  0.17723575  -0.00000572  0.00000182  -0.00000572  0.00000182   0.94356557  0.17723575
9.130000e+08   0.94385174  0.17681543  -0.00000564  0.00000182  -0.00000564  0.00000182   0.94385174  0.17681543
9.131250e+08   0.94413577  0.17639679  -0.00000556  0.00000181  -0.00000556  0.00000181   0.94413577  0.17639679
9.132500e+08   0.94441768  0.17597984  -0.00000548  0.00000180  -0.00000548  0.00000180   0.94441768  0.17597984
9.133750e+08   0.94469749  0.17556456  -0.00000540  0.00000180  -0.00000540  0.00000180   0.94469749  0.17556456
9.135000e+08   0.94497522  0.17515094  -0.00000533  0.00000179  -0.00000533  0.00000179   0.94497522  0.17515094
9.136250e+08   0.94525090  0.17473898  -0.00000525  0.00000178  -0.00000525  0.00000178   0.94525090  0.17473898
9.137500e+08   0.94552453  0.17432867  -0.00000518  0.00000177  -0.00000518  0.00000177   0.94552453  0.17432867
9.138750e+08   0.94579614  0.17392000  -0.00000510  0.00000177  -0.00000510  0.00000177   0.94579614  0.17392000
9.140000e+08   0.94606576  0.17351297  -0.00000503  0.00000176  -0.00000503  0.00000176   0.94606576  0.17351297
9.141250e+08   0.94633339  0.17310756  -0.00000496  0.00000175  -0.00000496  0.00000175   0.94633339  0.17310756
9.142500e+08   0.94659906  0.17270376  -0.00000489  0.00000174  -0.00000489  0.00000174   0.94659906  0.17270376
9.143750e+08   0.94686278  0.17230158  -0.00000482  0.00000173  -0.00000482  0.00000173   0.94686278  0.17230158
9.145000e+08   0.94712458  0.17190100  -0.00000475  0.00000173  -0.00000475  0.00000173   0.94712458  0.17190100
9.146250e+08   0.94738447  0.17150201  -0.00000469  0.00000172  -0.00000469  0.00000172   0.94738447  0.17150201
9.147500e+08   0.94764248  0.17110461  -0.00000462  0.00000171  -0.00000462  0.00000171   0.94764248  0.17110461
9.148750e+08   0.94789861  0.17070879  -0.00000456  0.00000170  -0.00000456  0.00000170   0.94789861  0.17070879
9.150000e+08   0.94815289  0.17031454  -0.00000449  0.00000169  -0.00000449  0.00000169   0.94815289  0.17031454
9.151250e+08   0.94840533  0.16992185  -0.00000443  0.00000168  -0.00000443  0.00000168   0.94840533  0.16992185
9.152500e+08   0.94865595  0.16953072  -0.00000437  0.00000167  -0.00000437  0.00000167   0.94865595  0.16953072
9.153750e+08   0.94890477  0.16914114  -0.00000431  0.00000166  -0.00000431  0.00000166   0.94890477  0.16914114
9.155000e+08   0.94915181  0.16875310  -0.00000425  0.00000166  -0.00000425  0.00000166   0.94915181  0.16875310
9.156250e+08   0.94939708  0.16836659  -0.00000419  0.00000165  -0.00000419  0.00000165   0.94939708  0.16836659
9.157500e+08   0.94964059  0.16798160  -0.00000413  0.00000164  -0.00000413  0.00000164   0.94964059  0.16798160
9.158750e+08   0.94988237  0.16759813  -0.00000408  0.00000163  -0.00000408  0.00000163   0.94988237  0.16759813
9.160000e+08   0.95012243  0.16721618  -0.00000402  0.00000162  -0.00000402  0.00000162   0.95012243  0.16721618
9.161250e+08   0.95036079  0.16683573  -0.00000396  0.00000161  -0.00000396  0.00000161   0.95036079  0.16683573
9.162500e+08   0.95059746  0.16645677  -0.00000391  0.00000160  -0.00000391  0.00000160   0.95059746  0.16645677
9.163750e+08   0.95083246  0.16607930  -0.00000386  0.00000159  -0.00000386  0.00000159   0.95083246  0.16607930
9.165000e+08   0.95106579  0.16570331  -0.00000380  0.00000158  -0.00000380  0.00000158   0.95106579  0.16570331
9.166250e+08   0.95129749  0.16532880  -0.00000375  0.00000157  -0.00000375  0.00000157   0.95129749  0.16532880
9.167500e+08   0.95152756  0.16495575  -0.00000370  0.00000156  -0.00000370  0.00000156   0.95152756  0.16495575
9.168750e+08   0.95175602  0.16458416  -0.00000365  0.00000155  -0.00000365  0.00000155   0.95175602  0.16458416
9.170000e+08   0.95198288  0.16421402  -0.00000360  0.00000154  -0.00000360  0.00000154   0.95198288  0.16421402
9.171250e+08   0.95220816  0.16384532  -0.00000355  0.00000153  -0.00000355  0.00000153   0.95220816  0.16384532
9.172500e+08   0.95243187  0.16347807  -0.00000351  0.00000152  -0.00000351  0.00000152   0.95243187  0.16347807
9.173750e+08   0.95265402  0.16311224  -0.00000346  0.00000151  -0.00000346  0.00000151   0.95265402  0.16311224
9.175000e+08   0.95287464  0.16274784  -0.00000341  0.00000150  -0.00000341  0.00000150   0.95287464  0.16274784
9.176250e+08   0.95309373  0.16238485  -0.00000337  0.00000150  -0.00000337  0.00000150   0.95309373  0.16238485
9.177500e+08   0.95331130  0.16202327  -0.00000332  0.00000149  -0.00000332  0.00000149   0.95331130  0.16202327
9.178750e+08   0.95352738  0.16166309  -0.00000328  0.00000148  -0.00000328  0.00000148   0.95352738  0.16166309
9.180000e+08   0.95374197  0.16130431  -0.00000323  0.00000147  -0.00000323  0.00000147   0.95374197  0.16130431
9.181250e+08   0.95395509  0.16094691  -0.00000319  0.00000146  -0.00000319  0.00000146   0.95395509  0.16094691
9.182500e+08   0.95416675  0.16059090  -0.00000315  0.00000145  -0.00000315  0.00000145   0.95416675  0.16059090
9.183750e+08   0.95437697  0.16023626  -0.00000311  0.00000144  -0.00000311  0.00000144   0.95437697  0.16023626
9.185000e+08   0.95458575  0.15988298  -0.00000306  0.00000143  -0.00000306  0.00000143   0.95458575  0.15988298
9.186250e+08   0.95479311  0.15953107  -0.00000302  0.00000142  -0.00000302  0.00000142   0.95479311  0.15953107
9.187500e+08   0.95499907  0.15918051  -0.00000298  0.00000141  -0.00000298  0.00000141   0.95499907  0.15918051
9.188750e+08   0.95520363  0.15883130  -0.00000294  0.00000140  -0.00000294  0.00000140   0.95520363  0.15883130
9.190000e+08   0.95540680  0.15848342  -0.00000291  0.00000139  -0.00000291  0.00000139   0.95540680  0.15848342
9.191250e+08   0.95560861  0.15813688  -0.00000287  0.00000138  -0.00000287  0.00000138   0.95560861  0.15813688
9.192500e+08   0.95580906  0.15779166  -0.00000283  0.00000137  -0.00000283  0.00000137   0.95580906  0.15779166
9.193750e+08   0.95600816  0.15744777  -0.00000279  0.00000136  -0.00000279  0.00000136   0.95600816  0.15744777
9.195000e+08   0.95620592  0.15710519  -0.00000276  0.00000135  -0.00000276  0.00000135   0.95620592  0.15710519
9.196250e+08   0.95640236  0.15676391  -0.00000272  0.00000134  -0.00000272  0.00000134   0.95640236  0.15676391
9.197500e+08   0.95659750  0.15642393  -0.00000269  0.00000133  -0.00000269  0.00000133   0.95659750  0.15642393
9.198750e+08   0.95679133  0.15608525  -0.00000265  0.00000132  -0.00000265  0.00000132   0.95679133  0.15608525
9.200000e+08   0.95698387  0.15574785  -0.00000262  0.00000131  -0.00000262  0.00000131   0.95698387  0.15574785
9.201250e+08   0.95717513  0.15541174  -0.00000258  0.00000131  -0.00000258  0.00000131   0.95717513  0.15541174
9.202500e+08   0.95736513  0.15507690  -0.00000255  0.00000130  -0.00000255  0.00000130   0.95736513  0.15507690
9.203750e+08   0.95755387  0.15474332  -0.00000252  0.00000129  -0.00000252  0.00000129   0.95755387  0.15474332
9.205000e+08   0.95774137  0.15441101  -0.00000248  0.00000128  -0.00000248  0.00000128   0.95774137  0.15441101
9.206250e+08   0.95792763  0.15407995  -0.00000245  0.00000127  -0.00000245  0.00000127   0.95792763  0.15407995
9.207500e+08   0.95811267  0.15375014  -0.00000242  0.00000126  -0.00000242  0.00000126   0.95811267  0.15375014
9.208750e+08   0.95829650  0.15342157  -0.00000239  0.00000125  -0.00000239  0.00000125   0.95829650  0.15342157
9.210000e+08   0.95847912  0.15309424  -0.00000236  0.00000124  -0.00000236  0.00000124   0.95847912  0.15309424
9.211250e+08   0.95866055  0.15276813  -0.00000233  0.00000123  -0.00000233  0.00000123   0.95866055  0.15276813
9.212500e+08   0.95884080  0.15244325  -0.00000230  0.00000122  -0.00000230  0.00000122   0.95884080  0.15244325
9.213750e+08   0.95901988  0.15211959  -0.00000227  0.00000121  -0.00000227  0.00000121   0.95901988  0.15211959
9.215000e+08   0.95919780  0.15179714  -0.00000224  0.00000121  -0.00000224  0.00000121   0.95919780  0.15179714
9.216250e+08   0.95937456  0.15147589  -0.00000221  0.00000120  -0.00000221  0.00000120   0.95937456  0.15147589
9.217500e+08   0.95955018  0.15115585  -0.00000218  0.00000119  -0.00000218  0.00000119   0.95955018  0.15115585
9.218750e+08   0.95972467  0.15083699  -0.00000216  0.00000118  -0.00000216  0.00000118   0.95972467  0.15083699
9.220000e+08   0.95989804  0.15051933  -0.00000213  0.00000117  -0.00000213  0.00000117   0.95989804  0.15051933
9.221250e+08   0.96007029  0.15020284  -0.00000210  0.00000116  -0.00000210  0.00000116   0.96007029  0.15020284
9.222500e+08   0.96024144  0.14988753  -0.00000208  0.00000115  -0.00000208  0.00000115   0.96024144  0.14988753
9.223750e+08   0.96041149  0.14957339  -0.00000205  0.00000114  -0.00000205  0.00000114   0.96041149  0.14957339
9.225000e+08   0.96058046  0.14926041  -0.00000203  0.00000114  -0.00000203  0.00000114   0.96058046  0.14926041
9.226250e+08   0.96074835  0.14894859  -0.00000200  0.00000113  -0.00000200  0.00000113   0.96074835  0.14894859
9.227500e+08   0.96091517  0.14863792  -0.00000198  0.00000112  -0.00000198  0.00000112   0.96091517  0.14863792
9.228750e+08   0.96108093  0.14832840  -0.00000195  0.00000111  -0.00000195  0.00000111   0.96108093  0.14832840
9.230000e+08   0.96124564  0.14802002  -0.00000193  0.00000110  -0.00000193  0.00000110   0.96124564  0.14802002
9.231250e+08   0.96140932  0.14771277  -0.00000190  0.00000109  -0.00000190  0.00000109   0.96140932  0.14771277
9.232500e+08   0.96157195  0.14740665  -0.00000188  0.00000109  -0.00000188  0.00000109   0.96157195  0.14740665
9.233750e+08   0.96173357  0.14710165  -0.00000186  0.00000108  -0.00000186  0.00000108   0.96173357  0.14710165
9.235000e+08   0.96189417  0.14679777  -0.00000183  0.00000107  -0.00000183  0.00000107   0.96189417  0.14679777
9.236250e+08   0.96205376  0.14649501  -0.00000181  0.00000106  -0.00000181  0.00000106   0.96205376  0.14649501
9.237500e+08   0.96221235  0.14619335  -0.00000179  0.00000105  -0.00000179  0.00000105   0.96221235  0.14619335
9.238750e+08   0.96236995  0.14589279  -0.00000177  0.00000105  -0.00000177  0.00000105   0.96236995  0.14589279
9.240000e+08   0.96252657  0.14559332  -0.00000174  0.00000104  -0.00000174  0.00000104   0.96252657  0.14559332
9.241250e+08   0.96268221  0.14529495  -0.00000172  0.00000103  -0.00000172  0.00000103   0.96268221  0.14529495
9.242500e+08   0.96283689  0.14499766  -0.00000170  0.00000102  -0.00000170  0.00000102   0.96283689  0.14499766
9.243750e+08   0.96299061  0.14470145  -0.00000168  0.00000101  -0.00000168  0.00000101   0.96299061  0.14470145
9.245000e+08   0.96314337  0.14440631  -0.00000166  0.00000101  -0.00000166  0.00000101   0.96314337  0.14440631
9.246250e+08   0.96329520  0.14411224  -0.00000164  0.00000100  -0.00000164  0.00000100   0.96329520  0.14411224
9.247500e+08   0.96344609  0.14381924  -0.00000162  0.00000099  -0.00000162  0.00000099   0.96344609  0.14381924
9.248750e+08   0.96359604  0.14352729  -0.00000160  0.00000098  -0.00000160  0.00000098   0.96359604  0.14352729
9.250000e+08   0.96374508  0.14323639  -0.00000158  0.00000098  -0.00000158  0.00000098   0.96374508  0.14323639
9.251250e+08   0.96389321  0.14294654  -0.00000156  0.00000097  -0.00000156  0.00000097   0.96389321  0.14294654
9.252500e+08   0.96404043  0.14265774  -0.00000154  0.00000096  -0.00000154  0.00000096   0.96404043  0.14265774
9.253750e+08   0.96418675  0.14236997  -0.00000153  0.00000095  -0.00000153  0.00000095   0.96418675  0.14236997
9.255000e+08   0.96433218  0.14208323  -0.00000151  0.00000095  -0.00000151  0.00000095   0.96433218  0.14208323
9.256250e+08   0.96447672  0.14179752  -0.00000149  0.00000094  -0.00000149  0.00000094   0.96447672  0.14179752
9.257500e+08   0.96462039  0.14151283  -0.00000147  0.00000093  -0.00000147  0.00000093   0.96462039  0.14151283
9.258750e+08   0.96476319  0.14122915  -0.00000145  0.00000092  -0.00000145  0.00000092   0.96476319  0.14122915
9.260000e+08   0.96490512  0.14094649  -0.00000144  0.00000092  -0.00000144  0.00000092   0.96490512  0.14094649
9.261250e+08   0.96504620  0.14066483  -0.00000142  0.00000091  -0.00000142  0.00000091   0.96504620  0.14066483
9.262500e+08   0.96518642  0.14038418  -0.00000140  0.00000090  -0.00000140  0.00000090   0.96518642  0.14038418
9.263750e+08   0.96532581  0.14010452  -0.00000139  0.00000090  -0.00000139  0.00000090   0.96532581  0.14010452
9.265000e+08   0.96546436  0.13982585  -0.00000137  0.00000089  -0.00000137  0.00000089   0.96546436  0.13982585
9.266250e+08   0.96560207  0.13954817  -0.00000135  0.00000088  -0.00000135  0.00000088   0.96560207  0.13954817
9.267500e+08   0.96573897  0.13927147  -0.00000134  0.00000088  -0.00000134  0.00000088   0.96573897  0.13927147
9.268750e+08   0.96587505  0.13899575  -0.00000132  0.00000087  -0.00000132  0.00000087   0.96587505  0.13899575
9.270000e+08   0.96601032  0.13872100  -0.00000131  0.00000086  -0.00000131  0.00000086   0.96601032  0.13872100
9.271250e+08   0.96614478  0.13844722  -0.00000129  0.00000086  -0.00000129  0.00000086   0.96614478  0.13844722
9.272500e+08   0.96627844  0.13817439  -0.00000128  0.00000085  -0.00000128  0.00000085   0.96627844  0.13817439
9.273750e+08   0.96641132  0.13790253  -0.00000126  0.00000084  -0.00000126  0.00000084   0.96641132  0.13790253
9.275000e+08   0.96654341  0.13763162  -0.00000125  0.00000084  -0.00000125  0.00000084   0.96654341  0.13763162
9.276250e+08   0.96667472  0.13736166  -0.00000123  0.00000083  -0.00000123  0.00000083   0.96667472  0.13736166
9.277500e+08   0.96680525  0.13709264  -0.00000122  0.00000082  -0.00000122  0.00000082   0.96680525  0.13709264
9.278750e+08   0.96693502  0.13682456  -0.00000120  0.00000082  -0.00000120  0.00000082   0.96693502  0.13682456
9.280000e+08   0.96706403  0.13655742  -0.00000119  0.00000081  -0.00000119  0.00000081   0.96706403  0.13655742
9.281250e+08   0.96719228  0.13629121  -0.00000118  0.00000080  -0.00000118  0.00000080   0.96719228  0.13629121
9.282500e+08   0.96731979  0.13602592  -0.00000116  0.00000080  -0.00000116  0.00000080   0.96731979  0.13602592
9.283750e+08   0.96744654  0.13576155  -0.00000115  0.00000079  -0.00000115  0.00000079   0.96744654  0.13576155
9.285000e+08   0.96757257  0.13549810  -0.00000113  0.00000078  -0.00000113  0.00000078   0.96757257  0.13549810
9.286250e+08   0.96769785  0.13523556  -0.00000112  0.00000078  -0.00000112  0.00000078   0.96769785  0.13523556
9.287500e+08   0.96782241  0.13497393  -0.00000111  0.00000077  -0.00000111  0.00000077   0.96782241  0.13497393
9.288750e+08   0.96794625  0.13471320  -0.00000110  0.00000077  -0.00000110  0.00000077   0.96794625  0.13471320
9.290000e+08   0.96806938  0.13445337  -0.00000108  0.00000076  -0.00000108  0.00000076   0.96806938  0.13445337
9.291250e+08   0.96819179  0.13419443  -0.00000107  0.00000075  -0.00000107  0.00000075   0.96819179  0.13419443
9.292500e+08   0.96831350  0.13393638  -0.00000106  0.00000075  -0.00000106  0.00000075   0.96831350  0.13393638
9.293750e+08   0.96843451  0.13367922  -0.00000105  0.00000074  -0.00000105  0.00000074   0.96843451  0.13367922
9.295000e+08   0.96855482  0.13342294  -0.00000104  0.00000074  -0.00000104  0.00000074   0.96855482  0.13342294
9.296250e+08   0.96867445  0.13316754  -0.00000102  0.00000073  -0.00000102  0.00000073   0.96867445  0.13316754
9.297500e+08   0.96879339  0.13291301  -0.00000101  0.00000073  -0.00000101  0.00000073   0.96879339  0.13291301
9.298750e+08   0.96891165  0.13265935  -0.00000100  0.00000072  -0.00000100  0.00000072   0.96891165  0.13265935
9.300000e+08   0.96902924  0.13240655  -0.00000099  0.00000071  -0.00000099  0.00000071   0.96902924  0.13240655
9.301250e+08   0.96914616  0.13215462  -0.00000098  0.00000071  -0.00000098  0.00000071   0.96914616  0.13215462
9.302500e+08   0.96926242  0.13190354  -0.00000097  0.00000070  -0.00000097  0.00000070   0.96926242  0.13190354
9.303750e+08   0.96937802  0.13165331  -0.00000096  0.00000070  -0.00000096  0.00000070   0.96937802  0.13165331
9.305000e+08   0.96949296  0.13140393  -0.00000095  0.00000069  -0.00000095  0.00000069   0.96949296  0.13140393
9.306250e+08   0.96960726  0.13115539  -0.00000093  0.00000069  -0.00000093  0.00000069   0.96960726  0.13115539
9.307500e+08   0.96972091  0.13090769  -0.00000092  0.00000068  -0.00000092  0.00000068   0.96972091  0.13090769
9.308750e+08   0.96983392  0.13066083  -0.00000091  0.00000068  -0.00000091  0.00000068   0.96983392  0.13066083
9.310000e+08   0.96994630  0.13041480  -0.00000090  0.00000067  -0.00000090  0.00000067   0.96994630  0.13041480
9.311250e+08   0.97005804  0.13016960  -0.00000089  0.00000067  -0.00000089  0.00000067   0.97005804  0.13016960
9.312500e+08   0.97016917  0.12992522  -0.00000088  0.00000066  -0.00000088  0.00000066   0.97016917  0.12992522
9.313750e+08   0.97027967  0.12968166  -0.00000087  0.00000066  -0.00000087  0.00000066   0.97027967  0.12968166
9.315000e+08   0.97038955  0.12943891  -0.00000086  0.00000065  -0.00000086  0.00000065   0.97038955  0.12943891
9.316250e+08   0.97049883  0.12919698  -0.00000085  0.00000065  -0.00000085  0.00000065   0.97049883  0.12919698
9.317500e+08   0.97060749  0.12895586  -0.00000085  0.00000064  -0.00000085  0.00000064   0.97060749  0.12895586
9.318750e+08   0.97071556  0.12871554  -0.00000084  0.00000064  -0.00000084  0.00000064   0.97071556  0.12871554
9.320000e+08   0.97082302  0.12847602  -0.00000083  0.00000063  -0.00000083  0.00000063   0.97082302  0.12847602
9.321250e+08   0.97092990  0.12823730  -0.00000082  0.00000063  -0.00000082  0.00000063   0.97092990  0.12823730
9.322500e+08   0.97103618  0.12799937  -0.00000081  0.00000062  -0.00000081  0.00000062   0.97103618  0.12799937
9.323750e+08   0.97114188  0.12776223  -0.00000080  0.00000062  -0.00000080  0.00000062   0.97114188  0.12776223
9.325000e+08   0.97124699  0.12752587  -0.00000079  0.00000061  -0.00000079  0.00000061   0.97124699  0.12752587
9.326250e+08   0.97135153  0.12729030  -0.00000078  0.00000061  -0.00000078  0.00000061   0.97135153  0.12729030
9.327500e+08   0.97145550  0.12705550  -0.00000077  0.00000060  -0.00000077  0.00000060   0.97145550  0.12705550
9.328750e+08   0.97155890  0.12682148  -0.00000077  0.00000060  -0.00000077  0.00000060   0.97155890  0.12682148
9.330000e+08   0.97166173  0.12658823  -0.00000076  0.00000059  -0.00000076  0.00000059   0.97166173  0.12658823
9.331250e+08   0.97176400  0.12635574  -0.00000075  0.00000059  -0.00000075  0.00000059   0.97176400  0.12635574
9.332500e+08   0.97186572  0.12612402  -0.00000074  0.00000058  -0.00000074  0.00000058   0.97186572  0.12612402
9.333750e+08   0.97196689  0.12589306  -0.00000073  0.00000058  -0.00000073  0.00000058   0.97196689  0.12589306
9.335000e+08   0.97206750  0.12566285  -0.00000072  0.00000057  -0.00000072  0.00000057   0.97206750  0.12566285
9.336250e+08   0.97216758  0.12543340  -0.00000072  0.00000057  -0.00000072  0.00000057   0.97216758  0.12543340
9.337500e+08   0.97226711  0.12520470  -0.00000071  0.00000057  -0.00000071  0.00000057   0.97226711  0.12520470
9.338750e+08   0.97236610  0.12497674  -0.00000070  0.00000056  -0.00000070  0.00000056   0.97236610  0.12497674
9.340000e+08   0.97246457  0.12474952  -0.00000069  0.00000056  -0.00000069  0.00000056   0.97246457  0.12474952
9.341250e+08   0.97256250  0.12452304  -0.00000069  0.00000055  -0.00000069  0.00000055   0.97256250  0.12452304
9.342500e+08   0.97265991  0.12429730  -0.00000068  0.00000055  -0.00000068  0.00000055   0.97265991  0.12429730
9.343750e+08   0.97275679  0.12407229  -0.00000067  0.00000054  -0.00000067  0.00000054   0.97275679  0.12407229
9.345000e+08   0.97285316  0.12384800  -0.00000066  0.00000054  -0.00000066  0.00000054   0.97285316  0.12384800
9.346250e+08   0.97294902  0.12362444  -0.00000066  0.00000054  -0.00000066  0.00000054   0.97294902  0.12362444
9.347500e+08   0.97304436  0.12340160  -0.00000065  0.00000053  -0.00000065  0.00000053   0.97304436  0.12340160
9.348750e+08   0.97313920  0.12317949  -0.00000064  0.00000053  -0.00000064  0.00000053   0.97313920  0.12317949
9.350000e+08   0.97323353  0.12295808  -0.00000064  0.00000052  -0.00000064  0.00000052   0.97323353  0.12295808
9.351250e+08   0.97332736  0.12273739  -0.00000063  0.00000052  -0.00000063  0.00000052   0.97332736  0.12273739
9.352500e+08   0.97342070  0.12251740  -0.00000062  0.00000052  -0.00000062  0.00000052   0.97342070  0.12251740
9.353750e+08   0.97351354  0.12229812  -0.00000062  0.00000051  -0.00000062  0.00000051   0.97351354  0.12229812
9.355000e+08   0.97360590  0.12207954  -0.00000061  0.00000051  -0.00000061  0.00000051   0.97360590  0.12207954
9.356250e+08   0.97369776  0.12186166  -0.00000060  0.00000050  -0.00000060  0.00000050   0.97369776  0.12186166
9.357500e+08   0.97378915  0.12164447  -0.00000060  0.00000050  -0.00000060  0.00000050   0.97378915  0.12164447
9.358750e+08   0.97388006  0.12142798  -0.00000059  0.00000050  -0.00000059  0.00000050   0.97388006  0.12142798
9.360000e+08   0.97397048  0.12121217  -0.00000059  0.00000049  -0.00000059  0.00000049   0.97397048  0.12121217
9.361250e+08   0.97406044  0.12099705  -0.00000058  0.00000049  -0.00000058  0.00000049   0.97406044  0.12099705
9.362500e+08   0.97414993  0.12078261  -0.00000057  0.00000048  -0.00000057  0.00000048   0.97414993  0.12078261
9.363750e+08   0.97423895  0.12056885  -0.00000057  0.00000048  -0.00000057  0.00000048   0.97423895  0.12056885
9.365000e+08   0.97432751  0.12035577  -0.00000056  0.00000048  -0.00000056  0.00000048   0.97432751  0.12035577
9.366250e+08   0.97441560  0.12014336  -0.00000056  0.00000047  -0.00000056  0.00000047   0.97441560  0.12014336
9.367500e+08   0.97450324  0.11993162  -0.00000055  0.00000047  -0.00000055  0.00000047   0.97450324  0.11993162
9.368750e+08   0.97459043  0.11972055  -0.00000054  0.00000047  -0.00000054  0.00000047   0.97459043  0.11972055
9.370000e+08   0.97467717  0.11951014  -0.00000054  0.00000046  -0.00000054  0.00000046   0.97467717  0.11951014
9.371250e+08   0.97476346  0.11930039  -0.00000053  0.00000046  -0.00000053  0.00000046   0.97476346  0.11930039
9.372500e+08   0.97484930  0.11909130  -0.00000053  0.00000046  -0.00000053  0.00000046   0.97484930  0.11909130
9.373750e+08   0.97493470  0.11888286  -0.00000052  0.00000045  -0.00000052  0.00000045   0.97493470  0.11888286
9.375000e+08   0.97501967  0.11867508  -0.00000052  0.00000045  -0.00000052  0.00000045   0.97501967  0.11867508
9.376250e+08   0.97510420  0.11846794  -0.00000051  0.00000045  -0.00000051  0.00000045   0.97510420  0.11846794
9.377500e+08   0.97518829  0.11826145  -0.00000051  0.00000044  -0.00000051  0.00000044   0.97518829  0.11826145
9.378750e+08   0.97527196  0.11805560  -0.00000050  0.00000044  -0.00000050  0.00000044   0.97527196  0.11805560
9.380000e+08   0.97535520  0.11785040  -0.00000050  0.00000044  -0.00000050  0.00000044   0.97535520  0.11785040
9.381250e+08   0.97543802  0.11764583  -0.00000049  0.00000043  -0.00000049  0.00000043   0.97543802  0.11764583
9.382500e+08   0.97552041  0.11744189  -0.00000049  0.00000043  -0.00000049  0.00000043   0.97552041  0.11744189
9.383750e+08   0.97560239  0.11723858  -0.00000048  0.00000043  -0.00000048  0.00000043   0.97560239  0.11723858
9.385000e+08   0.97568395  0.11703591  -0.00000048  0.00000042  -0.00000048  0.00000042   0.97568395  0.11703591
9.386250e+08   0.97576510  0.11683386  -0.00000047  0.00000042  -0.00000047  0.00000042   0.97576510  0.11683386
9.387500e+08   0.97584584  0.11663243  -0.00000047  0.00000042  -0.00000047  0.00000042   0.97584584  0.11663243
9.388750e+08   0.97592618  0.11643162  -0.00000046  0.00000041  -0.00000046  0.00000041   0.97592618  0.11643162
9.390000e+08   0.97600610  0.11623143  -0.00000046  0.00000041  -0.00000046  0.00000041   0.97600610  0.11623143
9.391250e+08   0.97608563  0.11603185  -0.00000045  0.00000041  -0.00000045  0.00000041   0.97608563  0.11603185
9.392500e+08   0.97616476  0.11583289  -0.00000045  0.00000040  -0.00000045  0.00000040   0.97616476  0.11583289
9.393750e+08   0.97624349  0.11563453  -0.00000044  0.00000040  -0.00000044  0.00000040   0.97624349  0.11563453
9.395000e+08   0.97632183  0.11543678  -0.00000044  0.00000040  -0.00000044  0.00000040   0.97632183  0.11543678
9.396250e+08   0.97639978  0.11523963  -0.00000043  0.00000039  -0.00000043  0.00000039   0.97639978  0.11523963
9.397500e+08   0.97647733  0.11504309  -0.00000043  0.00000039  -0.00000043  0.00000039   0.97647733  0.11504309
9.398750e+08   0.97655451  0.11484714  -0.00000043  0.00000039  -0.00000043  0.00000039   0.97655451  0.11484714
9.400000e+08   0.97663129  0.11465179  -0.00000042  0.00000039  -0.00000042  0.00000039   0.97663129  0.11465179
9.401250e+08   0.97670770  0.11445703  -0.00000042  0.00000038  -0.00000042  0.00000038   0.97670770  0.11445703
9.402500e+08   0.97678373  0.11426286  -0.00000041  0.00000038  -0.00000041  0.00000038   0.97678373  0.11426286
9.403750e+08   0.97685939  0.11406928  -0.00000041  0.00000038  -0.00000041  0.00000038   0.97685939  0.11406928
9.405000e+08   0.97693467  0.11387628  -0.00000040  0.00000037  -0.00000040  0.00000037   0.97693467  0.11387628
9.406250e+08   0.97700957  0.11368387  -0.00000040  0.00000037  -0.00000040  0.00000037   0.97700957  0.11368387
9.407500e+08   0.97708411  0.11349203  -0.00000040  0.00000037  -0.00000040  0.00000037   0.97708411  0.11349203
9.408750e+08   0.97715829  0.11330077  -0.00000039  0.00000037  -0.00000039  0.00000037   0.97715829  0.11330077
9.410000e+08   0.97723210  0.11311009  -0.00000039  0.00000036  -0.00000039  0.00000036   0.97723210  0.11311009
9.411250e+08   0.97730555  0.11291998  -0.00000039  0.00000036  -0.00000039  0.00000036   0.97730555  0.11291998
9.412500e+08   0.97737864  0.11273044  -0.00000038  0.00000036  -0.00000038  0.00000036   0.97737864  0.11273044
9.413750e+08   0.97745137  0.11254146  -0.00000038  0.00000035  -0.00000038  0.00000035   0.97745137  0.11254146
9.415000e+08   0.97752375  0.11235305  -0.00000037  0.00000035  -0.00000037  0.00000035   0.97752375  0.11235305
9.416250e+08   0.97759577  0.11216521  -0.00000037  0.00000035  -0.00000037  0.00000035   0.97759577  0.11216521
9.417500e+08   0.97766745  0.11197792  -0.00000037  0.00000035  -0.00000037  0.00000035   0.97766745  0.11197792
9.418750e+08   0.97773878  0.11179119  -0.00000036  0.00000034  -0.00000036  0.00000034   0.97773878  0.11179119
9.420000e+08   0.97780976  0.11160501  -0.00000036  0.00000034  -0.00000036  0.00000034   0.97780976  0.11160501
9.421250e+08   0.97788040  0.11141939  -0.00000036  0.00000034  -0.00000036  0.00000034   0.97788040  0.11141939
9.422500e+08   0.97795070  0.11123431  -0.00000035  0.00000034  -0.00000035  0.00000034   0.97795070  0.11123431
9.423750e+08   0.97802066  0.11104979  -0.00000035  0.00000033  -0.00000035  0.00000033   0.97802066  0.11104979
9.425000e+08   0.97809028  0.11086581  -0.00000035  0.00000033  -0.00000035  0.00000033   0.97809028  0.11086581
9.426250e+08   0.97815957  0.11068237  -0.00000034  0.00000033  -0.00000034  0.00000033   0.97815957  0.11068237
9.427500e+08   0.97822853  0.11049947  -0.00000034  0.00000033  -0.00000034  0.00000033   0.97822853  0.11049947
9.428750e+08   0.97829715  0.11031711  -0.00000034  0.00000032  -0.00000034  0.00000032   0.97829715  0.11031711
9.430000e+08   0.97836545  0.11013528  -0.00000033  0.00000032  -0.00000033  0.00000032   0.97836545  0.11013528
9.431250e+08   0.97843342  0.10995399  -0.00000033  0.00000032  -0.00000033  0.00000032   0.97843342  0.10995399
9.432500e+08   0.97850107  0.10977323  -0.00000033  0.00000032  -0.00000033  0.00000032   0.97850107  0.10977323
9.433750e+08   0.97856839  0.10959300  -0.00000032  0.00000031  -0.00000032  0.00000031   0.97856839  0.10959300
9.435000e+08   0.97863540  0.10941330  -0.00000032  0.00000031  -0.00000032  0.00000031   0.97863540  0.10941330
9.436250e+08   0.97870208  0.10923412  -0.00000032  0.00000031  -0.00000032  0.00000031   0.97870208  0.10923412
9.437500e+08   0.97876845  0.10905546  -0.00000031  0.00000031  -0.00000031  0.00000031   0.97876845  0.10905546
9.438750e+08   0.97883451  0.10887732  -0.00000031  0.00000031  -0.00000031  0.00000031   0.97883451  0.10887732
9.440000e+08   0.97890026  0.10869970  -0.00000031  0.00000030  -0.00000031  0.00000030   0.97890026  0.10869970
9.441250e+08   0.97896569  0.10852259  -0.00000030  0.00000030  -0.00000030  0.00000030   0.97896569  0.10852259
9.442500e+08   0.97903082  0.10834600  -0.00000030  0.00000030  -0.00000030  0.00000030   0.97903082  0.10834600
9.443750e+08   0.97909564  0.10816991  -0.00000030  0.00000030  -0.00000030  0.00000030   0.97909564  0.10816991
9.445000e+08   0.97916015  0.10799434  -0.00000030  0.00000029  -0.00000030  0.00000029   0.97916015  0.10799434
9.446250e+08   0.97922437  0.10781927  -0.00000029  0.00000029  -0.00000029  0.00000029   0.97922437  0.10781927
9.447500e+08   0.97928828  0.10764471  -0.00000029  0.00000029  -0.00000029  0.00000029   0.97928828  0.10764471
9.448750e+08   0.97935189  0.10747065  -0.00000029  0.00000029  -0.00000029  0.00000029   0.97935189  0.10747065
9.450000e+08   0.97941521  0.10729709  -0.00000029  0.00000029  -0.00000029  0.00000029   0.97941521  0.10729709
9.451250e+08   0.97947823  0.10712402  -0.00000028  0.00000028  -0.00000028  0.00000028   0.97947823  0.10712402
9.452500e+08   0.97954096  0.10695146  -0.00000028  0.00000028  -0.00000028  0.00000028   0.97954096  0.10695146
9.453750e+08   0.97960340  0.10677938  -0.00000028  0.00000028  -0.00000028  0.00000028   0.97960340  0.10677938
9.455000e+08   0.97966554  0.10660780  -0.00000027  0.00000028  -0.00000027  0.00000028   0.97966554  0.10660780
9.456250e+08   0.97972740  0.10643671  -0.00000027  0.00000028  -0.00000027  0.00000028   0.97972740  0.10643671
9.457500e+08   0.97978898  0.10626610  -0.00000027  0.00000027  -0.00000027  0.00000027   0.97978898  0.10626610
9.458750e+08   0.97985027  0.10609598  -0.00000027  0.00000027  -0.00000027  0.00000027   0.97985027  0.10609598
9.460000e+08   0.97991127  0.10592634  -0.00000026  0.00000027  -0.00000026  0.00000027   0.97991127  0.10592634
9.461250e+08   0.97997200  0.10575719  -0.00000026  0.00000027  -0.00000026  0.00000027   0.97997200  0.10575719
9.462500e+08   0.98003244  0.10558851  -0.00000026  0.00000027  -0.00000026  0.00000027   0.98003244  0.10558851
9.463750e+08   0.98009261  0.10542031  -0.00000026  0.00000026  -0.00000026  0.00000026   0.98009261  0.10542031
9.465000e+08   0.98015251  0.10525259  -0.00000025  0.00000026  -0.00000025  0.00000026   0.98015251  0.10525259
9.466250e+08   0.98021213  0.10508534  -0.00000025  0.00000026  -0.00000025  0.00000026   0.98021213  0.10508534
9.467500e+08   0.98027147  0.10491856  -0.00000025  0.00000026  -0.00000025  0.00000026   0.98027147  0.10491856
9.468750e+08   0.98033055  0.10475225  -0.00000025  0.00000026  -0.00000025  0.00000026   0.98033055  0.10475225
9.470000e+08   0.98038936  0.10458640  -0.00000025  0.00000025  -0.00000025  0.00000025   0.98038936  0.10458640
9.471250e+08   0.98044789  0.10442103  -0.00000024  0.00000025  -0.00000024  0.00000025   0.98044789  0.10442103
9.472500e+08   0.98050617  0.10425611  -0.00000024  0.00000025  -0.00000024  0.00000025   0.98050617  0.10425611
9.473750e+08   0.98056418  0.10409166  -0.00000024  0.00000025  -0.00000024  0.00000025   0.98056418  0.10409166
9.475000e+08   0.98062192  0.10392767  -0.00000024  0.00000025  -0.00000024  0.00000025   0.98062192  0.10392767
9.476250e+08   0.98067941  0.10376413  -0.00000023  0.00000025  -0.00000023  0.00000025   0.98067941  0.10376413
9.477500e+08   0.98073663  0.10360105  -0.00000023  0.00000024  -0.00000023  0.00000024   0.98073663  0.10360105
9.478750e+08   0.98079360  0.10343842  -0.00000023  0.00000024  -0.00000023  0.00000024   0.98079360  0.10343842
9.480000e+08   0.98085031  0.10327625  -0.00000023  0.00000024  -0.00000023  0.00000024   0.98085031  0.10327625
9.481250e+08   0.98090677  0.10311452  -0.00000023  0.00000024  -0.00000023  0.00000024   0.98090677  0.10311452
9.482500e+08   0.98096297  0.10295325  -0.00000022  0.00000024  -0.00000022  0.00000024   0.98096297  0.10295325
9.483750e+08   0.98101892  0.10279242  -0.00000022  0.00000024  -0.00000022  0.00000024   0.98101892  0.10279242
9.485000e+08   0.98107462  0.10263203  -0.00000022  0.00000023  -0.00000022  0.00000023   0.98107462  0.10263203
9.486250e+08   0.98113007  0.10247209  -0.00000022  0.00000023  -0.00000022  0.00000023   0.98113007  0.10247209
9.487500e+08   0.98118528  0.10231259  -0.00000022  0.00000023  -0.00000022  0.00000023   0.98118528  0.10231259
9.488750e+08   0.98124023  0.10215352  -0.00000021  0.00000023  -0.00000021  0.00000023   0.98124023  0.10215352
9.490000e+08   0.98129495  0.10199490  -0.00000021  0.00000023  -0.00000021  0.00000023   0.98129495  0.10199490
9.491250e+08   0.98134942  0.10183671  -0.00000021  0.00000023  -0.00000021  0.00000023   0.98134942  0.10183671
9.492500e+08   0.98140365  0.10167895  -0.00000021  0.00000022  -0.00000021  0.00000022   0.98140365  0.10167895
9.493750e+08   0.98145763  0.10152162  -0.00000021  0.00000022  -0.00000021  0.00000022   0.98145763  0.10152162
9.495000e+08   0.98151138  0.10136473  -0.00000020  0.00000022  -0.00000020  0.00000022   0.98151138  0.10136473
9.496250e+08   0.98156489  0.10120826  -0.00000020  0.00000022  -0.00000020  0.00000022   0.98156489  0.10120826
9.497500e+08   0.98161817  0.10105222  -0.00000020  0.00000022  -0.00000020  0.00000022   0.98161817  0.10105222
9.498750e+08   0.98167121  0.10089661  -0.00000020  0.00000022  -0.00000020  0.00000022   0.98167121  0.10089661
9.500000e+08   0.98172402  0.10074141  -0.00000020  0.00000021  -0.00000020  0.00000021   0.98172402  0.10074141
9.501250e+08   0.98177659  0.10058664  -0.00000020  0.00000021  -0.00000020  0.00000021   0.98177659  0.10058664
9.502500e+08   0.98182894  0.10043229  -0.00000019  0.00000021  -0.00000019  0.00000021   0.98182894  0.10043229
9.503750e+08   0.98188106  0.10027836  -0.00000019  0.00000021  -0.00000019  0.00000021   0.98188106  0.10027836
9.505000e+08   0.98193294  0.10012484  -0.00000019  0.00000021  -0.00000019  0.00000021   0.98193294  0.10012484
9.506250e+08   0.98198460  0.09997174  -0.00000019  0.00000021  -0.00000019  0.00000021   0.98198460  0.09997174
9.507500e+08   0.98203604  0.09981905  -0.00000019  0.00000021  -0.00000019  0.00000021   0.98203604  0.09981905
9.508750e+08   0.98208725  0.09966677  -0.00000019  0.00000020  -0.00000019  0.00000020   0.98208725  0.09966677
9.510000e+08   0.98213824  0.09951490  -0.00000018  0.00000020  -0.00000018  0.00000020   0.98213824  0.09951490
9.511250e+08   0.98218901  0.09936344  -0.00000018  0.00000020  -0.00000018  0.00000020   0.98218901  0.09936344
9.512500e+08   0.98223956  0.09921238  -0.00000018  0.00000020  -0.00000018  0.00000020   0.98223956  0.09921238
9.513750e+08   0.98228988  0.09906173  -0.00000018  0.00000020  -0.00000018  0.00000020   0.98228988  0.09906173
9.515000e+08   0.98234000  0.09891149  -0.00000018  0.00000020  -0.00000018  0.00000020   0.98234000  0.09891149
9.516250e+08   0.98238989  0.09876164  -0.00000018  0.00000020  -0.00000018  0.00000020   0.98238989  0.09876164
9.517500e+08   0.98243957  0.09861220  -0.00000017  0.00000019  -0.00000017  0.00000019   0.98243957  0.09861220
9.518750e+08   0.98248904  0.09846315  -0.00000017  0.00000019  -0.00000017  0.00000019   0.98248904  0.09846315
9.520000e+08   0.98253829  0.09831450  -0.00000017  0.00000019  -0.00000017  0.00000019   0.98253829  0.09831450
9.521250e+08   0.98258733  0.09816624  -0.00000017  0.00000019  -0.00000017  0.00000019   0.98258733  0.09816624
9.522500e+08   0.98263616  0.09801838  -0.00000017  0.00000019  -0.00000017  0.00000019   0.98263616  0.09801838
9.523750e+08   0.98268478  0.09787091  -0.00000017  0.00000019  -0.00000017  0.00000019   0.98268478  0.09787091
9.525000e+08   0.98273320  0.09772383  -0.00000017  0.00000019  -0.00000017  0.00000019   0.98273320  0.09772383
9.526250e+08   0.98278140  0.09757713  -0.00000016  0.00000018  -0.00000016  0.00000018   0.98278140  0.09757713
9.527500e+08   0.98282941  0.09743083  -0.00000016  0.00000018  -0.00000016  0.00000018   0.98282941  0.09743083
9.528750e+08   0.98287720  0.09728491  -0.00000016  0.00000018  -0.00000016  0.00000018   0.98287720  0.09728491
9.530000e+08   0.98292480  0.09713937  -0.00000016  0.00000018  -0.00000016  0.00000018   0.98292480  0.09713937
9.531250e+08   0.98297219  0.09699422  -0.00000016  0.00000018  -0.00000016  0.00000018   0.98297219  0.09699422
9.532500e+08   0.98301938  0.09684945  -0.00000016  0.00000018  -0.00000016  0.00000018   0.98301938  0.09684945
9.533750e+08   0.98306637  0.09670506  -0.00000016  0.00000018  -0.00000016  0.00000018   0.98306637  0.09670506
9.535000e+08   0.98311316  0.09656104  -0.00000015  0.00000018  -0.00000015  0.00000018   0.98311316  0.09656104
9.536250e+08   0.98315976  0.09641741  -0.00000015  0.00000017  -0.00000015  0.00000017   0.98315976  0.09641741
9.537500e+08   0.98320616  0.09627415  -0.00000015  0.00000017  -0.00000015  0.00000017   0.98320616  0.09627415
9.538750e+08   0.98325236  0.09613126  -0.00000015  0.00000017  -0.00000015  0.00000017   0.98325236  0.09613126
9.540000e+08   0.98329837  0.09598874  -0.00000015  0.00000017  -0.00000015  0.00000017   0.98329837  0.09598874
9.541250e+08   0.98334419  0.09584659  -0.00000015  0.00000017  -0.00000015  0.00000017   0.98334419  0.09584659
9.542500e+08   0.98338981  0.09570482  -0.00000015  0.00000017  -0.00000015  0.00000017   0.98338981  0.09570482
9.543750e+08   0.98343524  0.09556341  -0.00000015  0.00000017  -0.00000015  0.00000017   0.98343524  0.09556341
9.545000e+08   0.98348048  0.09542237  -0.00000014  0.00000017  -0.00000014  0.00000017   0.98348048  0.09542237
9.546250e+08   0.98352554  0.09528169  -0.00000014  0.00000017  -0.00000014  0.00000017   0.98352554  0.09528169
9.547500e+08   0.98357040  0.09514138  -0.00000014  0.00000016  -0.00000014  0.00000016   0.98357040  0.09514138
9.548750e+08   0.98361508  0.09500142  -0.00000014  0.00000016  -0.00000014  0.00000016   0.98361508  0.09500142
9.550000e+08   0.98365958  0.09486183  -0.00000014  0.00000016  -0.00000014  0.00000016   0.98365958  0.09486183
9.551250e+08   0.98370388  0.09472260  -0.00000014  0.00000016  -0.00000014  0.00000016   0.98370388  0.09472260
9.552500e+08   0.98374801  0.09458373  -0.00000014  0.00000016  -0.00000014  0.00000016   0.98374801  0.09458373
9.553750e+08   0.98379195  0.09444521  -0.00000014  0.00000016  -0.00000014  0.00000016   0.98379195  0.09444521
9.555000e+08   0.98383571  0.09430705  -0.00000013  0.00000016  -0.00000013  0.00000016   0.98383571  0.09430705
9.556250e+08   0.98387929  0.09416924  -0.00000013  0.00000016  -0.00000013  0.00000016   0.98387929  0.09416924
9.557500e+08   0.98392269  0.09403178  -0.00000013  0.00000016  -0.00000013  0.00000016   0.98392269  0.09403178
9.558750e+08   0.98396591  0.09389467  -0.00000013  0.00000015  -0.00000013  0.00000015   0.98396591  0.09389467
9.560000e+08   0.98400895  0.09375792  -0.00000013  0.00000015  -0.00000013  0.00000015   0.98400895  0.09375792
9.561250e+08   0.98405182  0.09362151  -0.00000013  0.00000015  -0.00000013  0.00000015   0.98405182  0.09362151
9.562500e+08   0.98409451  0.09348545  -0.00000013  0.00000015  -0.00000013  0.00000015   0.98409451  0.09348545
9.563750e+08   0.98413702  0.09334973  -0.00000013  0.00000015  -0.00000013  0.00000015   0.98413702  0.09334973
9.565000e+08   0.98417936  0.09321436  -0.00000013  0.00000015  -0.00000013  0.00000015   0.98417936  0.09321436
9.566250e+08   0.98422153  0.09307934  -0.00000012  0.00000015  -0.00000012  0.00000015   0.98422153  0.09307934
9.567500e+08   0.98426353  0.09294465  -0.00000012  0.00000015  -0.00000012  0.00000015   0.98426353  0.09294465
9.568750e+08   0.98430535  0.09281030  -0.00000012  0.00000015  -0.00000012  0.00000015   0.98430535  0.09281030
9.570000e+08   0.98434701  0.09267630  -0.00000012  0.00000015  -0.00000012  0.00000015   0.98434701  0.09267630
9.571250e+08   0.98438849  0.09254263  -0.00000012  0.00000014  -0.00000012  0.00000014   0.98438849  0.09254263
9.572500e+08   0.98442981  0.09240929  -0.00000012  0.00000014  -0.00000012  0.00000014   0.98442981  0.09240929
9.573750e+08   0.98447096  0.09227630  -0.00000012  0.00000014  -0.00000012  0.00000014   0.98447096  0.09227630
9.575000e+08   0.98451194  0.09214363  -0.00000012  0.00000014  -0.00000012  0.00000014   0.98451194  0.09214363
9.576250e+08   0.98455276  0.09201130  -0.00000012  0.00000014  -0.00000012  0.00000014   0.98455276  0.09201130
9.577500e+08   0.98459341  0.09187930  -0.00000012  0.00000014  -0.00000012  0.00000014   0.98459341  0.09187930
9.578750e+08   0.98463390  0.09174763  -0.00000011  0.00000014  -0.00000011  0.00000014   0.98463390  0.09174763
9.580000e+08   0.98467422  0.09161629  -0.00000011  0.00000014  -0.00000011  0.00000014   0.98467422  0.09161629
9.581250e+08   0.98471439  0.09148527  -0.00000011  0.00000014  -0.00000011  0.00000014   0.98471439  0.09148527
9.582500e+08   0.98475439  0.09135459  -0.00000011  0.00000014  -0.00000011  0.00000014   0.98475439  0.09135459
9.583750e+08   0.98479423  0.09122422  -0.00000011  0.00000013  -0.00000011  0.00000013   0.98479423  0.09122422
9.585000e+08   0.98483391  0.09109419  -0.00000011  0.00000013  -0.00000011  0.00000013   0.98483391  0.09109419
9.586250e+08   0.98487343  0.09096447  -0.00000011  0.00000013  -0.00000011  0.00000013   0.98487343  0.09096447
9.587500e+08   0.98491280  0.09083508  -0.00000011  0.00000013  -0.00000011  0.00000013   0.98491280  0.09083508
9.588750e+08   0.98495201  0.09070600  -0.00000011  0.00000013  -0.00000011  0.00000013   0.98495201  0.09070600
9.590000e+08   0.98499106  0.09057725  -0.00000011  0.00000013  -0.00000011  0.00000013   0.98499106  0.09057725
9.591250e+08   0.98502995  0.09044881  -0.00000011  0.00000013  -0.00000011  0.00000013   0.98502995  0.09044881
9.592500e+08   0.98506870  0.09032069  -0.00000010  0.00000013  -0.00000010  0.00000013   0.98506870  0.09032069
9.593750e+08   0.98510728  0.09019288  -0.00000010  0.00000013  -0.00000010  0.00000013   0.98510728  0.09019288
9.595000e+08   0.98514572  0.09006539  -0.00000010  0.00000013  -0.00000010  0.00000013   0.98514572  0.09006539
9.596250e+08   0.98518400  0.08993821  -0.00000010  0.00000013  -0.00000010  0.00000013   0.98518400  0.08993821
9.597500e+08   0.98522213  0.08981135  -0.00000010  0.00000013  -0.00000010  0.00000013   0.98522213  0.08981135
9.598750e+08   0.98526011  0.08968479  -0.00000010  0.00000012  -0.00000010  0.00000012   0.98526011  0.08968479
9.600000e+08   0.98529794  0.08955855  -0.00000010  0.00000012  -0.00000010  0.00000012   0.98529794  0.08955855
9.601250e+08   0.98533563  0.08943261  -0.00000010  0.00000012  -0.00000010  0.00000012   0.98533563  0.08943261
9.602500e+08   0.98537316  0.08930698  -0.00000010  0.00000012  -0.00000010  0.00000012   0.98537316  0.08930698
9.603750e+08   0.98541055  0.08918166  -0.00000010  0.00000012  -0.00000010  0.00000012   0.98541055  0.08918166
9.605000e+08   0.98544779  0.08905664  -0.00000010  0.00000012  -0.00000010  0.00000012   0.98544779  0.08905664
9.606250e+08   0.98548488  0.08893192  -0.00000010  0.00000012  -0.00000010  0.00000012   0.98548488  0.08893192
9.607500e+08   0.98552183  0.08880751  -0.00000009  0.00000012  -0.00000009  0.00000012   0.98552183  0.08880751
9.608750e+08   0.98555863  0.08868340  -0.00000009  0.00000012  -0.00000009  0.00000012   0.98555863  0.08868340
9.610000e+08   0.98559529  0.08855959  -0.00000009  0.00000012  -0.00000009  0.00000012   0.98559529  0.08855959
9.611250e+08   0.98563181  0.08843608  -0.00000009  0.00000012  -0.00000009  0.00000012   0.98563181  0.08843608
9.612500e+08   0.98566818  0.08831286  -0.00000009  0.00000012  -0.00000009  0.00000012   0.98566818  0.08831286
9.613750e+08   0.98570442  0.08818995  -0.00000009  0.00000012  -0.00000009  0.00000012   0.98570442  0.08818995
9.615000e+08   0.98574051  0.08806733  -0.00000009  0.00000011  -0.00000009  0.00000011   0.98574051  0.08806733
9.616250e+08   0.98577647  0.08794500  -0.00000009  0.00000011  -0.00000009  0.00000011   0.98577647  0.08794500
9.617500e+08   0.98581228  0.08782297  -0.00000009  0.00000011  -0.00000009  0.00000011   0.98581228  0.08782297
9.618750e+08   0.98584795  0.08770124  -0.00000009  0.00000011  -0.00000009  0.00000011   0.98584795  0.08770124
9.620000e+08   0.98588349  0.08757979  -0.00000009  0.00000011  -0.00000009  0.00000011   0.98588349  0.08757979
9.621250e+08   0.98591889  0.08745864  -0.00000009  0.00000011  -0.00000009  0.00000011   0.98591889  0.08745864
9.622500e+08   0.98595416  0.08733777  -0.00000009  0.00000011  -0.00000009  0.00000011   0.98595416  0.08733777
9.623750e+08   0.98598929  0.08721719  -0.00000009  0.00000011  -0.00000009  0.00000011   0.98598929  0.08721719
9.625000e+08   0.98602428  0.08709690  -0.00000008  0.00000011  -0.00000008  0.00000011   0.98602428  0.08709690
9.626250e+08   0.98605914  0.08697690  -0.00000008  0.00000011  -0.00000008  0.00000011   0.98605914  0.08697690
9.627500e+08   0.98609386  0.08685718  -0.00000008  0.00000011  -0.00000008  0.00000011   0.98609386  0.08685718
9.628750e+08   0.98612846  0.08673775  -0.00000008  0.00000011  -0.00000008  0.00000011   0.98612846  0.08673775
9.630000e+08   0.98616292  0.08661860  -0.00000008  0.00000011  -0.00000008  0.00000011   0.98616292  0.08661860
9.631250e+08   0.98619724  0.08649973  -0.00000008  0.00000010  -0.00000008  0.00000010   0.98619724  0.08649973
9.632500e+08   0.98623144  0.08638115  -0.00000008  0.00000010  -0.00000008  0.00000010   0.98623144  0.08638115
9.633750e+08   0.98626551  0.08626284  -0.00000008  0.00000010  -0.00000008  0.00000010   0.98626551  0.08626284
9.635000e+08   0.98629945  0.08614481  -0.00000008  0.00000010  -0.00000008  0.00000010   0.98629945  0.08614481
9.636250e+08   0.98633325  0.08602706  -0.00000008  0.00000010  -0.00000008  0.00000010   0.98633325  0.08602706
9.637500e+08   0.98636693  0.08590959  -0.00000008  0.00000010  -0.00000008  0.00000010   0.98636693  0.08590959
9.638750e+08   0.98640049  0.08579240  -0.00000008  0.00000010  -0.00000008  0.00000010   0.98640049  0.08579240
9.640000e+08   0.98643391  0.08567548  -0.00000008  0.00000010  -0.00000008  0.00000010   0.98643391  0.08567548
9.641250e+08   0.98646721  0.08555883  -0.00000008  0.00000010  -0.00000008  0.00000010   0.98646721  0.08555883
9.642500e+08   0.98650038  0.08544246  -0.00000008  0.00000010  -0.00000008  0.00000010   0.98650038  0.08544246
9.643750e+08   0.98653343  0.08532636  -0.00000008  0.00000010  -0.00000008  0.00000010   0.98653343  0.08532636
9.645000e+08   0.98656636  0.08521053  -0.00000007  0.00000010  -0.00000007  0.00000010   0.98656636  0.08521053
9.646250e+08   0.98659916  0.08509498  -0.00000007  0.00000010  -0.00000007  0.00000010   0.98659916  0.08509498
9.647500e+08   0.98663183  0.08497969  -0.00000007  0.00000010  -0.00000007  0.00000010   0.98663183  0.08497969
9.648750e+08   0.98666439  0.08486467  -0.00000007  0.00000010  -0.00000007  0.00000010   0.98666439  0.08486467
9.650000e+08   0.98669682  0.08474991  -0.00000007  0.00000010  -0.00000007  0.00000010   0.98669682  0.08474991
9.651250e+08   0.98672913  0.08463543  -0.00000007  0.00000009  -0.00000007  0.00000009   0.98672913  0.08463543
9.652500e+08   0.98676132  0.08452121  -0.00000007  0.00000009  -0.00000007  0.00000009   0.98676132  0.08452121
9.653750e+08   0.98679339  0.08440725  -0.00000007  0.00000009  -0.00000007  0.00000009   0.98679339  0.08440725
9.655000e+08   0.98682534  0.08429356  -0.00000007  0.00000009  -0.00000007  0.00000009   0.98682534  0.08429356
9.656250e+08   0.98685717  0.08418013  -0.00000007  0.00000009  -0.00000007  0.00000009   0.98685717  0.08418013
9.657500e+08   0.98688888  0.08406696  -0.00000007  0.00000009  -0.00000007  0.00000009   0.98688888  0.08406696
9.658750e+08   0.98692047  0.08395405  -0.00000007  0.00000009  -0.00000007  0.00000009   0.98692047  0.08395405
9.660000e+08   0.98695195  0.08384141  -0.00000007  0.00000009  -0.00000007  0.00000009   0.98695195  0.08384141
9.661250e+08   0.98698331  0.08372902  -0.00000007  0.00000009  -0.00000007  0.00000009   0.98698331  0.08372902
9.662500e+08   0.98701455  0.08361689  -0.00000007  0.00000009  -0.00000007  0.00000009   0.98701455  0.08361689
9.663750e+08   0.98704568  0.08350501  -0.00000007  0.00000009  -0.00000007  0.00000009   0.98704568  0.08350501
9.665000e+08   0.98707670  0.08339340  -0.00000007  0.00000009  -0.00000007  0.00000009   0.98707670  0.08339340
9.666250e+08   0.98710759  0.08328204  -0.00000007  0.00000009  -0.00000007  0.00000009   0.98710759  0.08328204
9.667500e+08   0.98713838  0.08317093  -0.00000007  0.00000009  -0.00000007  0.00000009   0.98713838  0.08317093
9.668750e+08   0.98716905  0.08306008  -0.00000006  0.00000009  -0.00000006  0.00000009   0.98716905  0.08306008
9.670000e+08   0.98719961  0.08294948  -0.00000006  0.00000009  -0.00000006  0.00000009   0.98719961  0.08294948
9.671250e+08   0.98723006  0.08283913  -0.00000006  0.00000009  -0.00000006  0.00000009   0.98723006  0.08283913
9.672500e+08   0.98726039  0.08272903  -0.00000006  0.00000008  -0.00000006  0.00000008   0.98726039  0.08272903
9.673750e+08   0.98729062  0.08261918  -0.00000006  0.00000008  -0.00000006  0.00000008   0.98729062  0.08261918
9.675000e+08   0.98732073  0.08250958  -0.00000006  0.00000008  -0.00000006  0.00000008   0.98732073  0.08250958
9.676250e+08   0.98735073  0.08240023  -0.00000006  0.00000008  -0.00000006  0.00000008   0.98735073  0.08240023
9.677500e+08   0.98738063  0.08229113  -0.00000006  0.00000008  -0.00000006  0.00000008   0.98738063  0.08229113
9.678750e+08   0.98741041  0.08218227  -0.00000006  0.00000008  -0.00000006  0.00000008   0.98741041  0.08218227
9.680000e+08   0.98744009  0.08207366  -0.00000006  0.00000008  -0.00000006  0.00000008   0.98744009  0.08207366
9.681250e+08   0.98746966  0.08196530  -0.00000006  0.00000008  -0.00000006  0.00000008   0.98746966  0.08196530
9.682500e+08   0.98749912  0.08185718  -0.00000006  0.00000008  -0.00000006  0.00000008   0.98749912  0.08185718
9.683750e+08   0.98752847  0.08174930  -0.00000006  0.00000008  -0.00000006  0.00000008   0.98752847  0.08174930
9.685000e+08   0.98755772  0.08164166  -0.00000006  0.00000008  -0.00000006  0.00000008   0.98755772  0.08164166
9.686250e+08   0.98758686  0.08153427  -0.00000006  0.00000008  -0.00000006  0.00000008   0.98758686  0.08153427
9.687500e+08   0.98761590  0.08142711  -0.00000006  0.00000008  -0.00000006  0.00000008   0.98761590  0.08142711
9.688750e+08   0.98764483  0.08132020  -0.00000006  0.00000008  -0.00000006  0.00000008   0.98764483  0.08132020
9.690000e+08   0.98767366  0.08121352  -0.00000006  0.00000008  -0.00000006  0.00000008   0.98767366  0.08121352
9.691250e+08   0.98770238  0.08110709  -0.00000006  0.00000008  -0.00000006  0.00000008   0.98770238  0.08110709
9.692500e+08   0.98773100  0.08100089  -0.00000006  0.00000008  -0.00000006  0.00000008   0.98773100  0.08100089
9.693750e+08   0.98775952  0.08089492  -0.00000006  0.00000008  -0.00000006  0.00000008   0.98775952  0.08089492
9.695000e+08   0.98778793  0.08078920  -0.00000006  0.00000008  -0.00000006  0.00000008   0.98778793  0.08078920
9.696250e+08   0.98781625  0.08068370  -0.00000005  0.00000008  -0.00000005  0.00000008   0.98781625  0.08068370
9.697500e+08   0.98784446  0.08057845  -0.00000005  0.00000007  -0.00000005  0.00000007   0.98784446  0.08057845
9.698750e+08   0.98787257  0.08047342  -0.00000005  0.00000007  -0.00000005  0.00000007   0.98787257  0.08047342
9.700000e+08   0.98790058  0.08036863  -0.00000005  0.00000007  -0.00000005  0.00000007   0.98790058  0.08036863
9.701250e+08   0.98792849  0.08026407  -0.00000005  0.00000007  -0.00000005  0.00000007   0.98792849  0.08026407
9.702500e+08   0.98795630  0.08015974  -0.00000005  0.00000007  -0.00000005  0.00000007   0.98795630  0.08015974
9.703750e+08   0.98798401  0.08005564  -0.00000005  0.00000007  -0.00000005  0.00000007   0.98798401  0.08005564
9.705000e+08   0.98801163  0.07995177  -0.00000005  0.00000007  -0.00000005  0.00000007   0.98801163  0.07995177
9.706250e+08   0.98803914  0.07984812  -0.00000005  0.00000007  -0.00000005  0.00000007   0.98803914  0.07984812
9.707500e+08   0.98806656  0.07974471  -0.00000005  0.00000007  -0.00000005  0.00000007   0.98806656  0.07974471
9.708750e+08   0.98809388  0.07964152  -0.00000005  0.00000007  -0.00000005  0.00000007   0.98809388  0.07964152
9.710000e+08   0.98812110  0.07953856  -0.00000005  0.00000007  -0.00000005  0.00000007   0.98812110  0.07953856
9.711250e+08   0.98814823  0.07943582  -0.00000005  0.00000007  -0.00000005  0.00000007   0.98814823  0.07943582
9.712500e+08   0.98817526  0.07933331  -0.00000005  0.00000007  -0.00000005  0.00000007   0.98817526  0.07933331
9.713750e+08   0.98820220  0.07923103  -0.00000005  0.00000007  -0.00000005  0.00000007   0.98820220  0.07923103
9.715000e+08   0.98822904  0.07912896  -0.00000005  0.00000007  -0.00000005  0.00000007   0.98822904  0.07912896
9.716250e+08   0.98825579  0.07902712  -0.00000005  0.00000007  -0.00000005  0.00000007   0.98825579  0.07902712
9.717500e+08   0.98828244  0.07892550  -0.00000005  0.00000007  -0.00000005  0.00000007   0.98828244  0.07892550
9.718750e+08   0.98830900  0.07882410  -0.00000005  0.00000007  -0.00000005  0.00000007   0.98830900  0.07882410
9.720000e+08   0.98833547  0.07872292  -0.00000005  0.00000007  -0.00000005  0.00000007   0.98833547  0.07872292
9.721250e+08   0.98836184  0.07862196  -0.00000005  0.00000007  -0.00000005  0.00000007   0.98836184  0.07862196
9.722500e+08   0.98838812  0.07852122  -0.00000005  0.00000007  -0.00000005  0.00000007   0.98838812  0.07852122
9.723750e+08   0.98841431  0.07842070  -0.00000005  0.00000007  -0.00000005  0.00000007   0.98841431  0.07842070
9.725000e+08   0.98844041  0.07832039  -0.00000005  0.00000007  -0.00000005  0.00000007   0.98844041  0.07832039
9.726250e+08   0.98846642  0.07822030  -0.00000005  0.00000006  -0.00000005  0.00000006   0.98846642  0.07822030
9.727500e+08   0.98849233  0.07812043  -0.00000005  0.00000006  -0.00000005  0.00000006   0.98849233  0.07812043
9.728750e+08   0.98851816  0.07802077  -0.00000005  0.00000006  -0.00000005  0.00000006   0.98851816  0.07802077
9.730000e+08   0.98854389  0.07792133  -0.00000004  0.00000006  -0.00000004  0.00000006   0.98854389  0.07792133
9.731250e+08   0.98856954  0.07782210  -0.00000004  0.00000006  -0.00000004  0.00000006   0.98856954  0.07782210
9.732500e+08   0.98859510  0.07772308  -0.00000004  0.00000006  -0.00000004  0.00000006   0.98859510  0.07772308
9.733750e+08   0.98862057  0.07762427  -0.00000004  0.00000006  -0.00000004  0.00000006   0.98862057  0.07762427
9.735000e+08   0.98864595  0.07752568  -0.00000004  0.00000006  -0.00000004  0.00000006   0.98864595  0.07752568
9.736250e+08   0.98867125  0.07742730  -0.00000004  0.00000006  -0.00000004  0.00000006   0.98867125  0.07742730
9.737500e+08   0.98869645  0.07732912  -0.00000004  0.00000006  -0.00000004  0.00000006   0.98869645  0.07732912
9.738750e+08   0.98872157  0.07723116  -0.00000004  0.00000006  -0.00000004  0.00000006   0.98872157  0.07723116
9.740000e+08   0.98874661  0.07713340  -0.00000004  0.00000006  -0.00000004  0.00000006   0.98874661  0.07713340
9.741250e+08   0.98877155  0.07703586  -0.00000004  0.00000006  -0.00000004  0.00000006   0.98877155  0.07703586
9.742500e+08   0.98879642  0.07693852  -0.00000004  0.00000006  -0.00000004  0.00000006   0.98879642  0.07693852
9.743750e+08   0.98882119  0.07684138  -0.00000004  0.00000006  -0.00000004  0.00000006   0.98882119  0.07684138
9.745000e+08   0.98884588  0.07674446  -0.00000004  0.00000006  -0.00000004  0.00000006   0.98884588  0.07674446
9.746250e+08   0.98887049  0.07664774  -0.00000004  0.00000006  -0.00000004  0.00000006   0.98887049  0.07664774
9.747500e+08   0.98889501  0.07655122  -0.00000004  0.00000006  -0.00000004  0.00000006   0.98889501  0.07655122
9.748750e+08   0.98891945  0.07645490  -0.00000004  0.00000006  -0.00000004  0.00000006   0.98891945  0.07645490
9.750000e+08   0.98894381  0.07635879  -0.00000004  0.00000006  -0.00000004  0.00000006   0.98894381  0.07635879
9.751250e+08   0.98896808  0.07626289  -0.00000004  0.00000006  -0.00000004  0.00000006   0.98896808  0.07626289
9.752500e+08   0.98899227  0.07616718  -0.00000004  0.00000006  -0.00000004  0.00000006   0.98899227  0.07616718
9.753750e+08   0.98901638  0.07607168  -0.00000004  0.00000006  -0.00000004  0.00000006   0.98901638  0.07607168
9.755000e+08   0.98904040  0.07597637  -0.00000004  0.00000006  -0.00000004  0.00000006   0.98904040  0.07597637
9.756250e+08   0.98906435  0.07588127  -0.00000004  0.00000006  -0.00000004  0.00000006   0.98906435  0.07588127
9.757500e+08   0.98908821  0.07578636  -0.00000004  0.00000006  -0.00000004  0.00000006   0.98908821  0.07578636
9.758750e+08   0.98911199  0.07569166  -0.00000004  0.00000006  -0.00000004  0.00000006   0.98911199  0.07569166
9.760000e+08   0.98913569  0.07559715  -0.00000004  0.00000006  -0.00000004  0.00000006   0.98913569  0.07559715
9.761250e+08   0.98915932  0.07550284  -0.00000004  0.00000005  -0.00000004  0.00000005   0.98915932  0.07550284
9.762500e+08   0.98918286  0.07540872  -0.00000004  0.00000005  -0.00000004  0.00000005   0.98918286  0.07540872
9.763750e+08   0.98920632  0.07531480  -0.00000004  0.00000005  -0.00000004  0.00000005   0.98920632  0.07531480
9.765000e+08   0.98922970  0.07522108  -0.00000004  0.00000005  -0.00000004  0.00000005   0.98922970  0.07522108
9.766250e+08   0.98925301  0.07512755  -0.00000004  0.00000005  -0.00000004  0.00000005   0.98925301  0.07512755
9.767500e+08   0.98927624  0.07503422  -0.00000004  0.00000005  -0.00000004  0.00000005   0.98927624  0.07503422
9.768750e+08   0.98929938  0.07494108  -0.00000004  0.00000005  -0.00000004  0.00000005   0.98929938  0.07494108
9.770000e+08   0.98932246  0.07484813  -0.00000004  0.00000005  -0.00000004  0.00000005   0.98932246  0.07484813
9.771250e+08   0.98934545  0.07475537  -0.00000004  0.00000005  -0.00000004  0.00000005   0.98934545  0.07475537
9.772500e+08   0.98936837  0.07466281  -0.00000004  0.00000005  -0.00000004  0.00000005   0.98936837  0.07466281
9.773750e+08   0.98939121  0.07457044  -0.00000003  0.00000005  -0.00000003  0.00000005   0.98939121  0.07457044
9.775000e+08   0.98941397  0.07447826  -0.00000003  0.00000005  -0.00000003  0.00000005   0.98941397  0.07447826
9.776250e+08   0.98943666  0.07438626  -0.00000003  0.00000005  -0.00000003  0.00000005   0.98943666  0.07438626
9.777500e+08   0.98945927  0.07429446  -0.00000003  0.00000005  -0.00000003  0.00000005   0.98945927  0.07429446
9.778750e+08   0.98948181  0.07420284  -0.00000003  0.00000005  -0.00000003  0.00000005   0.98948181  0.07420284
9.780000e+08   0.98950427  0.07411142  -0.00000003  0.00000005  -0.00000003  0.00000005   0.98950427  0.07411142
9.781250e+08   0.98952666  0.07402018  -0.00000003  0.00000005  -0.00000003  0.00000005   0.98952666  0.07402018
9.782500e+08   0.98954897  0.07392912  -0.00000003  0.00000005  -0.00000003  0.00000005   0.98954897  0.07392912
9.783750e+08   0.98957121  0.07383826  -0.00000003  0.00000005  -0.00000003  0.00000005   0.98957121  0.07383826
9.785000e+08   0.98959338  0.07374758  -0.00000003  0.00000005  -0.00000003  0.00000005   0.98959338  0.07374758
9.786250e+08   0.98961547  0.07365708  -0.00000003  0.00000005  -0.00000003  0.00000005   0.98961547  0.07365708
9.787500e+08   0.98963749  0.07356677  -0.00000003  0.00000005  -0.00000003  0.00000005   0.98963749  0.07356677
9.788750e+08   0.98965944  0.07347664  -0.00000003  0.00000005  -0.00000003  0.00000005   0.98965944  0.07347664
9.790000e+08   0.98968132  0.07338670  -0.00000003  0.00000005  -0.00000003  0.00000005   0.98968132  0.07338670
9.791250e+08   0.98970312  0.07329693  -0.00000003  0.00000005  -0.00000003  0.00000005   0.98970312  0.07329693
9.792500e+08   0.98972485  0.07320735  -0.00000003  0.00000005  -0.00000003  0.00000005   0.98972485  0.07320735
9.793750e+08   0.98974651  0.07311795  -0.00000003  0.00000005  -0.00000003  0.00000005   0.98974651  0.07311795
9.795000e+08   0.98976810  0.07302874  -0.00000003  0.00000005  -0.00000003  0.00000005   0.98976810  0.07302874
9.796250e+08   0.98978962  0.07293970  -0.00000003  0.00000005  -0.00000003  0.00000005   0.98978962  0.07293970
9.797500e+08   0.98981107  0.07285084  -0.00000003  0.00000005  -0.00000003  0.00000005   0.98981107  0.07285084
9.798750e+08   0.98983245  0.07276216  -0.00000003  0.00000005  -0.00000003  0.00000005   0.98983245  0.07276216
9.800000e+08   0.98985376  0.07267366  -0.00000003  0.00000005  -0.00000003  0.00000005   0.98985376  0.07267366
9.801250e+08   0.98987499  0.07258534  -0.00000003  0.00000005  -0.00000003  0.00000005   0.98987499  0.07258534
9.802500e+08   0.98989616  0.07249719  -0.00000003  0.00000005  -0.00000003  0.00000005   0.98989616  0.07249719
9.803750e+08   0.98991726  0.07240923  -0.00000003  0.00000004  -0.00000003  0.00000004   0.98991726  0.07240923
9.805000e+08   0.98993830  0.07232143  -0.00000003  0.00000004  -0.00000003  0.00000004   0.98993830  0.07232143
9.806250e+08   0.98995926  0.07223382  -0.00000003  0.00000004  -0.00000003  0.00000004   0.98995926  0.07223382
9.807500e+08   0.98998016  0.07214638  -0.00000003  0.00000004  -0.00000003  0.00000004   0.98998016  0.07214638
9.808750e+08   0.99000098  0.07205911  -0.00000003  0.00000004  -0.00000003  0.00000004   0.99000098  0.07205911
9.810000e+08   0.99002174  0.07197202  -0.00000003  0.00000004  -0.00000003  0.00000004   0.99002174  0.07197202
9.811250e+08   0.99004244  0.07188510  -0.00000003  0.00000004  -0.00000003  0.00000004   0.99004244  0.07188510
9.812500e+08   0.99006306  0.07179836  -0.00000003  0.00000004  -0.00000003  0.00000004   0.99006306  0.07179836
9.813750e+08   0.99008362  0.07171178  -0.00000003  0.00000004  -0.00000003  0.00000004   0.99008362  0.07171178
9.815000e+08   0.99010412  0.07162538  -0.00000003  0.00000004  -0.00000003  0.00000004   0.99010412  0.07162538
9.816250e+08   0.99012454  0.07153916  -0.00000003  0.00000004  -0.00000003  0.00000004   0.99012454  0.07153916
9.817500e+08   0.99014491  0.07145310  -0.00000003  0.00000004  -0.00000003  0.00000004   0.99014491  0.07145310
9.818750e+08   0.99016520  0.07136721  -0.00000003  0.00000004  -0.00000003  0.00000004   0.99016520  0.07136721
9.820000e+08   0.99018543  0.07128149  -0.00000003  0.00000004  -0.00000003  0.00000004   0.99018543  0.07128149
9.821250e+08   0.99020560  0.07119594  -0.00000003  0.00000004  -0.00000003  0.00000004   0.99020560  0.07119594
9.822500e+08   0.99022570  0.07111056  -0.00000003  0.00000004  -0.00000003  0.00000004   0.99022570  0.07111056
9.823750e+08   0.99024574  0.07102535  -0.00000003  0.00000004  -0.00000003  0.00000004   0.99024574  0.07102535
9.825000e+08   0.99026571  0.07094031  -0.00000003  0.00000004  -0.00000003  0.00000004   0.99026571  0.07094031
9.826250e+08   0.99028562  0.07085543  -0.00000003  0.00000004  -0.00000003  0.00000004   0.99028562  0.07085543
9.827500e+08   0.99030547  0.07077072  -0.00000003  0.00000004  -0.00000003  0.00000004   0.99030547  0.07077072
9.828750e+08   0.99032525  0.07068618  -0.00000003  0.00000004  -0.00000003  0.00000004   0.99032525  0.07068618
9.830000e+08   0.99034497  0.07060180  -0.00000003  0.00000004  -0.00000003  0.00000004   0.99034497  0.07060180
9.831250e+08   0.99036463  0.07051758  -0.00000003  0.00000004  -0.00000003  0.00000004   0.99036463  0.07051758
9.832500e+08   0.99038422  0.07043354  -0.00000003  0.00000004  -0.00000003  0.00000004   0.99038422  0.07043354
9.833750e+08   0.99040376  0.07034965  -0.00000003  0.00000004  -0.00000003  0.00000004   0.99040376  0.07034965
9.835000e+08   0.99042323  0.07026593  -0.00000002  0.00000004  -0.00000002  0.00000004   0.99042323  0.07026593
9.836250e+08   0.99044264  0.07018237  -0.00000002  0.00000004  -0.00000002  0.00000004   0.99044264  0.07018237
9.837500e+08   0.99046198  0.07009898  -0.00000002  0.00000004  -0.00000002  0.00000004   0.99046198  0.07009898
9.838750e+08   0.99048127  0.07001574  -0.00000002  0.00000004  -0.00000002  0.00000004   0.99048127  0.07001574
9.840000e+08   0.99050049  0.06993267  -0.00000002  0.00000004  -0.00000002  0.00000004   0.99050049  0.06993267
9.841250e+08   0.99051966  0.06984976  -0.00000002  0.00000004  -0.00000002  0.00000004   0.99051966  0.06984976
9.842500e+08   0.99053876  0.06976701  -0.00000002  0.00000004  -0.00000002  0.00000004   0.99053876  0.06976701
9.843750e+08   0.99055781  0.06968442  -0.00000002  0.00000004  -0.00000002  0.00000004   0.99055781  0.06968442
9.845000e+08   0.99057679  0.06960199  -0.00000002  0.00000004  -0.00000002  0.00000004   0.99057679  0.06960199
9.846250e+08   0.99059572  0.06951972  -0.00000002  0.00000004  -0.00000002  0.00000004   0.99059572  0.06951972
9.847500e+08   0.99061458  0.06943761  -0.00000002  0.00000004  -0.00000002  0.00000004   0.99061458  0.06943761
9.848750e+08   0.99063339  0.06935566  -0.00000002  0.00000004  -0.00000002  0.00000004   0.99063339  0.06935566
9.850000e+08   0.99065214  0.06927386  -0.00000002  0.00000004  -0.00000002  0.00000004   0.99065214  0.06927386
9.851250e+08   0.99067082  0.06919222  -0.00000002  0.00000004  -0.00000002  0.00000004   0.99067082  0.06919222
9.852500e+08   0.99068946  0.06911074  -0.00000002  0.00000004  -0.00000002  0.00000004   0.99068946  0.06911074
9.853750e+08   0.99070803  0.06902941  -0.00000002  0.00000004  -0.00000002  0.00000004   0.99070803  0.06902941
9.855000e+08   0.99072654  0.06894824  -0.00000002  0.00000004  -0.00000002  0.00000004   0.99072654  0.06894824
9.856250e+08   0.99074500  0.06886723  -0.00000002  0.00000004  -0.00000002  0.00000004   0.99074500  0.06886723
9.857500e+08   0.99076340  0.06878637  -0.00000002  0.00000003  -0.00000002  0.00000003   0.99076340  0.06878637
9.858750e+08   0.99078174  0.06870566  -0.00000002  0.00000003  -0.00000002  0.00000003   0.99078174  0.06870566
9.860000e+08   0.99080002  0.06862511  -0.00000002  0.00000003  -0.00000002  0.00000003   0.99080002  0.06862511
9.861250e+08   0.99081825  0.06854471  -0.00000002  0.00000003  -0.00000002  0.00000003   0.99081825  0.06854471
9.862500e+08   0.99083642  0.06846447  -0.00000002  0.00000003  -0.00000002  0.00000003   0.99083642  0.06846447
9.863750e+08   0.99085454  0.06838438  -0.00000002  0.00000003  -0.00000002  0.00000003   0.99085454  0.06838438
9.865000e+08   0.99087260  0.06830444  -0.00000002  0.00000003  -0.00000002  0.00000003   0.99087260  0.06830444
9.866250e+08   0.99089060  0.06822465  -0.00000002  0.00000003  -0.00000002  0.00000003   0.99089060  0.06822465
9.867500e+08   0.99090855  0.06814501  -0.00000002  0.00000003  -0.00000002  0.00000003   0.99090855  0.06814501
9.868750e+08   0.99092644  0.06806552  -0.00000002  0.00000003  -0.00000002  0.00000003   0.99092644  0.06806552
9.870000e+08   0.99094428  0.06798619  -0.00000002  0.00000003  -0.00000002  0.00000003   0.99094428  0.06798619
9.871250e+08   0.99096206  0.06790700  -0.00000002  0.00000003  -0.00000002  0.00000003   0.99096206  0.06790700
9.872500e+08   0.99097979  0.06782796  -0.00000002  0.00000003  -0.00000002  0.00000003   0.99097979  0.06782796
9.873750e+08   0.99099747  0.06774907  -0.00000002  0.00000003  -0.00000002  0.00000003   0.99099747  0.06774907
9.875000e+08   0.99101508  0.06767033  -0.00000002  0.00000003  -0.00000002  0.00000003   0.99101508  0.06767033
9.876250e+08   0.99103265  0.06759174  -0.00000002  0.00000003  -0.00000002  0.00000003   0.99103265  0.06759174
9.877500e+08   0.99105016  0.06751330  -0.00000002  0.00000003  -0.00000002  0.00000003   0.99105016  0.06751330
9.878750e+08   0.99106762  0.06743500  -0.00000002  0.00000003  -0.00000002  0.00000003   0.99106762  0.06743500
9.880000e+08   0.99108502  0.06735685  -0.00000002  0.00000003  -0.00000002  0.00000003   0.99108502  0.06735685
9.881250e+08   0.99110238  0.06727884  -0.00000002  0.00000003  -0.00000002  0.00000003   0.99110238  0.06727884
9.882500e+08   0.99111967  0.06720098  -0.00000002  0.00000003  -0.00000002  0.00000003   0.99111967  0.06720098
9.883750e+08   0.99113692  0.06712327  -0.00000002  0.00000003  -0.00000002  0.00000003   0.99113692  0.06712327
9.885000e+08   0.99115411  0.06704570  -0.00000002  0.00000003  -0.00000002  0.00000003   0.99115411  0.06704570
9.886250e+08   0.99117125  0.06696828  -0.00000002  0.00000003  -0.00000002  0.00000003   0.99117125  0.06696828
9.887500e+08   0.99118834  0.06689100  -0.00000002  0.00000003  -0.00000002  0.00000003   0.99118834  0.06689100
9.888750e+08   0.99120538  0.06681386  -0.00000002  0.00000003  -0.00000002  0.00000003   0.99120538  0.06681386
9.890000e+08   0.99122237  0.06673687  -0.00000002  0.00000003  -0.00000002  0.00000003   0.99122237  0.06673687
9.891250e+08   0.99123930  0.06666002  -0.00000002  0.00000003  -0.00000002  0.00000003   0.99123930  0.06666002
9.892500e+08   0.99125618  0.06658331  -0.00000002  0.00000003  -0.00000002  0.00000003   0.99125618  0.06658331
9.893750e+08   0.99127301  0.06650675  -0.00000002  0.00000003  -0.00000002  0.00000003   0.99127301  0.06650675
9.895000e+08   0.99128980  0.06643032  -0.00000002  0.00000003  -0.00000002  0.00000003   0.99128980  0.06643032
9.896250e+08   0.99130653  0.06635404  -0.00000002  0.00000003  -0.00000002  0.00000003   0.99130653  0.06635404
9.897500e+08   0.99132321  0.06627790  -0.00000002  0.00000003  -0.00000002  0.00000003   0.99132321  0.06627790
9.898750e+08   0.99133984  0.06620190  -0.00000002  0.00000003  -0.00000002  0.00000003   0.99133984  0.06620190
9.900000e+08   0.99135641  0.06612603  -0.00000002  0.00000003  -0.00000002  0.00000003   0.99135641  0.06612603
9.901250e+08   0.99137294  0.06605031  -0.00000002  0.00000003  -0.00000002  0.00000003   0.99137294  0.06605031
9.902500e+08   0.99138942  0.06597473  -0.00000002  0.00000003  -0.00000002  0.00000003   0.99138942  0.06597473
9.903750e+08   0.99140586  0.06589928  -0.00000002  0.00000003  -0.00000002  0.00000003   0.99140586  0.06589928
9.905000e+08   0.99142224  0.06582398  -0.00000002  0.00000003  -0.00000002  0.00000003   0.99142224  0.06582398
9.906250e+08   0.99143857  0.06574881  -0.00000002  0.00000003  -0.00000002  0.00000003   0.99143857  0.06574881
9.907500e+08   0.99145485  0.06567378  -0.00000002  0.00000003  -0.00000002  0.00000003   0.99145485  0.06567378
9.908750e+08   0.99147109  0.06559888  -0.00000002  0.00000003  -0.00000002  0.00000003   0.99147109  0.06559888
9.910000e+08   0.99148727  0.06552413  -0.00000002  0.00000003  -0.00000002  0.00000003   0.99148727  0.06552413
9.911250e+08   0.99150341  0.06544950  -0.00000002  0.00000003  -0.00000002  0.00000003   0.99150341  0.06544950
9.912500e+08   0.99151950  0.06537502  -0.00000002  0.00000003  -0.00000002  0.00000003   0.99151950  0.06537502
9.913750e+08   0.99153555  0.06530067  -0.00000002  0.00000003  -0.00000002  0.00000003   0.99153555  0.06530067
9.915000e+08   0.99155154  0.06522645  -0.00000002  0.00000003  -0.00000002  0.00000003   0.99155154  0.06522645
9.916250e+08   0.99156749  0.06515237  -0.00000002  0.00000003  -0.00000002  0.00000003   0.99156749  0.06515237
9.917500e+08   0.99158339  0.06507843  -0.00000002  0.00000003  -0.00000002  0.00000003   0.99158339  0.06507843
9.918750e+08   0.99159924  0.06500462  -0.00000002  0.00000003  -0.00000002  0.00000003   0.99159924  0.06500462
9.920000e+08   0.99161505  0.06493094  -0.00000002  0.00000003  -0.00000002  0.00000003   0.99161505  0.06493094
9.921250e+08   0.99163081  0.06485739  -0.00000002  0.00000003  -0.00000002  0.00000003   0.99163081  0.06485739
9.922500e+08   0.99164652  0.06478398  -0.00000002  0.00000003  -0.00000002  0.00000003   0.99164652  0.06478398
9.923750e+08   0.99166218  0.06471070  -0.00000002  0.00000003  -0.00000002  0.00000003   0.99166218  0.06471070
9.925000e+08   0.99167780  0.06463755  -0.00000002  0.00000003  -0.00000002  0.00000003   0.99167780  0.06463755
9.926250e+08   0.99169338  0.06456454  -0.00000002  0.00000003  -0.00000002  0.00000003   0.99169338  0.06456454
9.927500e+08   0.99170891  0.06449165  -0.00000002  0.00000003  -0.00000002  0.00000003   0.99170891  0.06449165
9.928750e+08   0.99172439  0.06441890  -0.00000002  0.00000003  -0.00000002  0.00000003   0.99172439  0.06441890
9.930000e+08   0.99173982  0.06434627  -0.00000002  0.00000003  -0.00000002  0.00000003   0.99173982  0.06434627
9.931250e+08   0.99175522  0.06427378  -0.00000002  0.00000003  -0.00000002  0.00000003   0.99175522  0.06427378
9.932500e+08   0.99177056  0.06420142  -0.00000001  0.00000002  -0.00000001  0.00000002   0.99177056  0.06420142
9.933750e+08   0.99178586  0.06412918  -0.00000001  0.00000002  -0.00000001  0.00000002   0.99178586  0.06412918
9.935000e+08   0.99180112  0.06405708  -0.00000001  0.00000002  -0.00000001  0.00000002   0.99180112  0.06405708
9.936250e+08   0.99181633  0.06398510  -0.00000001  0.00000002  -0.00000001  0.00000002   0.99181633  0.06398510
9.937500e+08   0.99183150  0.06391325  -0.00000001  0.00000002  -0.00000001  0.00000002   0.99183150  0.06391325
9.938750e+08   0.99184662  0.06384153  -0.00000001  0.00000002  -0.00000001  0.00000002   0.99184662  0.06384153
9.940000e+08   0.99186170  0.06376994  -0.00000001  0.00000002  -0.00000001  0.00000002   0.99186170  0.06376994
9.941250e+08   0.99187674  0.06369847  -0.00000001  0.00000002  -0.00000001  0.00000002   0.99187674  0.06369847
9.942500e+08   0.99189173  0.06362713  -0.00000001  0.00000002  -0.00000001  0.00000002   0.99189173  0.06362713
9.943750e+08   0.99190668  0.06355592  -0.00000001  0.00000002  -0.00000001  0.00000002   0.99190668  0.06355592
9.945000e+08   0.99192158  0.06348483  -0.00000001  0.00000002  -0.00000001  0.00000002   0.99192158  0.06348483
9.946250e+08   0.99193644  0.06341387  -0.00000001  0.00000002  -0.00000001  0.00000002   0.99193644  0.06341387
9.947500e+08   0.99195126  0.06334303  -0.00000001  0.00000002  -0.00000001  0.00000002   0.99195126  0.06334303
9.948750e+08   0.99196603  0.06327232  -0.00000001  0.00000002  -0.00000001  0.00000002   0.99196603  0.06327232
9.950000e+08   0.99198077  0.06320174  -0.00000001  0.00000002  -0.00000001  0.00000002   0.99198077  0.06320174
9.951250e+08   0.99199546  0.06313127  -0.00000001  0.00000002  -0.00000001  0.00000002   0.99199546  0.06313127
9.952500e+08   0.99201010  0.06306094  -0.00000001  0.00000002  -0.00000001  0.00000002   0.99201010  0.06306094
9.953750e+08   0.99202471  0.06299072  -0.00000001  0.00000002  -0.00000001  0.00000002   0.99202471  0.06299072
9.955000e+08   0.99203927  0.06292063  -0.00000001  0.00000002  -0.00000001  0.00000002   0.99203927  0.06292063
9.956250e+08   0.99205379  0.06285066  -0.00000001  0.00000002  -0.00000001  0.00000002   0.99205379  0.06285066
9.957500e+08   0.99206827  0.06278082  -0.00000001  0.00000002  -0.00000001  0.00000002   0.99206827  0.06278082
9.958750e+08   0.99208271  0.06271109  -0.00000001  0.00000002  -0.00000001  0.00000002   0.99208271  0.06271109
9.960000e+08   0.99209711  0.06264149  -0.00000001  0.00000002  -0.00000001  0.00000002   0.99209711  0.06264149
9.961250e+08   0.99211146  0.06257201  -0.00000001  0.00000002  -0.00000001  0.00000002   0.99211146  0.06257201
9.962500e+08   0.99212577  0.06250265  -0.00000001  0.00000002  -0.00000001  0.00000002   0.99212577  0.06250265
9.963750e+08   0.99214005  0.06243341  -0.00000001  0.00000002  -0.00000001  0.00000002   0.99214005  0.06243341
9.965000e+08   0.99215428  0.06236430  -0.00000001  0.00000002  -0.00000001  0.00000002   0.99215428  0.06236430
9.966250e+08   0.99216847  0.06229530  -0.00000001  0.00000002  -0.00000001  0.00000002   0.99216847  0.06229530
9.967500e+08   0.99218262  0.06222642  -0.00000001  0.00000002  -0.00000001  0.00000002   0.99218262  0.06222642
9.968750e+08   0.99219673  0.06215766  -0.00000001  0.00000002  -0.00000001  0.00000002   0.99219673  0.06215766
9.970000e+08   0.99221080  0.06208902  -0.00000001  0.00000002  -0.00000001  0.00000002   0.99221080  0.06208902
9.971250e+08   0.99222483  0.06202050  -0.00000001  0.00000002  -0.00000001  0.00000002   0.99222483  0.06202050
9.972500e+08   0.99223882  0.06195210  -0.00000001  0.00000002  -0.00000001  0.00000002   0.99223882  0.06195210
9.973750e+08   0.99225277  0.06188382  -0.00000001  0.00000002  -0.00000001  0.00000002   0.99225277  0.06188382
9.975000e+08   0.99226668  0.06181565  -0.00000001  0.00000002  -0.00000001  0.00000002   0.99226668  0.06181565
9.976250e+08   0.99228055  0.06174760  -0.00000001  0.00000002  -0.00000001  0.00000002   0.99228055  0.06174760
9.977500e+08   0.99229438  0.06167967  -0.00000001  0.00000002  -0.00000001  0.00000002   0.99229438  0.06167967
9.978750e+08   0.99230818  0.06161186  -0.00000001  0.00000002  -0.00000001  0.00000002   0.99230818  0.06161186
9.980000e+08   0.99232193  0.06154416  -0.00000001  0.00000002  -0.00000001  0.00000002   0.99232193  0.06154416
9.981250e+08   0.99233564  0.06147658  -0.00000001  0.00000002  -0.00000001  0.00000002   0.99233564  0.06147658
9.982500e+08   0.99234932  0.06140911  -0.00000001  0.00000002  -0.00000001  0.00000002   0.99234932  0.06140911
9.983750e+08   0.99236296  0.06134176  -0.00000001  0.00000002  -0.00000001  0.00000002   0.99236296  0.06134176
9.985000e+08   0.99237656  0.06127453  -0.00000001  0.00000002  -0.00000001  0.00000002   0.99237656  0.06127453
9.986250e+08   0.99239012  0.06120741  -0.00000001  0.00000002  -0.00000001  0.00000002   0.99239012  0.06120741
9.987500e+08   0.99240364  0.06114040  -0.00000001  0.00000002  -0.00000001  0.00000002   0.99240364  0.06114040
9.988750e+08   0.99241712  0.06107351  -0.00000001  0.00000002  -0.00000001  0.00000002   0.99241712  0.06107351
9.990000e+08   0.99243057  0.06100674  -0.00000001  0.00000002  -0.00000001  0.00000002   0.99243057  0.06100674
9.991250e+08   0.99244398  0.06094007  -0.00000001  0.00000002  -0.00000001  0.00000002   0.99244398  0.06094007
9.992500e+08   0.99245735  0.06087352  -0.00000001  0.00000002  -0.00000001  0.00000002   0.99245735  0.06087352
9.993750e+08   0.99247068  0.06080708  -0.00000001  0.00000002  -0.00000001  0.00000002   0.99247068  0.06080708
9.995000e+08   0.99248398  0.06074076  -0.00000001  0.00000002  -0.00000001  0.00000002   0.99248398  0.06074076
9.996250e+08   0.99249724  0.06067455  -0.00000001  0.00000002  -0.00000001  0.00000002   0.99249724  0.06067455
9.997500e+08   0.99251046  0.06060845  -0.00000001  0.00000002  -0.00000001  0.00000002   0.99251046  0.06060845
9.998750e+08   0.99252364  0.06054246  -0.00000001  0.00000002  -0.00000001  0.00000002   0.99252364  0.06054246
1.000000e+09   0.99253679  0.06047658  -0.00000001  0.00000002  -0.00000001  0.00000002   0.99253679  0.06047658
1.000125e+09   0.99254990  0.06041082  -0.00000001  0.00000002  -0.00000001  0.00000002   0.99254990  0.06041082
1.000250e+09   0.99256298  0.06034516  -0.00000001  0.00000002  -0.00000001  0.00000002   0.99256298  0.06034516
1.000375e+09   0.99257602  0.06027962  -0.00000001  0.00000002  -0.00000001  0.00000002   0.99257602  0.06027962
1.000500e+09   0.99258902  0.06021419  -0.00000001  0.00000002  -0.00000001  0.00000002   0.99258902  0.06021419
1.000625e+09   0.99260199  0.06014886  -0.00000001  0.00000002  -0.00000001  0.00000002   0.99260199  0.06014886
1.000750e+09   0.99261492  0.06008365  -0.00000001  0.00000002  -0.00000001  0.00000002   0.99261492  0.06008365
1.000875e+09   0.99262781  0.06001854  -0.00000001  0.00000002  -0.00000001  0.00000002   0.99262781  0.06001854
1.001000e+09   0.99264067  0.05995355  -0.00000001  0.00000002  -0.00000001  0.00000002   0.99264067  0.05995355
1.001125e+09   0.99265350  0.05988866  -0.00000001  0.00000002  -0.00000001  0.00000002   0.99265350  0.05988866
1.001250e+09   0.99266628  0.05982388  -0.00000001  0.00000002  -0.00000001  0.00000002   0.99266628  0.05982388
1.001375e+09   0.99267904  0.05975921  -0.00000001  0.00000002  -0.00000001  0.00000002   0.99267904  0.05975921
1.001500e+09   0.99269175  0.05969465  -0.00000001  0.00000002  -0.00000001  0.00000002   0.99269175  0.05969465
1.001625e+09   0.99270444  0.05963020  -0.00000001  0.00000002  -0.00000001  0.00000002   0.99270444  0.05963020
1.001750e+09   0.99271708  0.05956585  -0.00000001  0.00000002  -0.00000001  0.00000002   0.99271708  0.05956585
1.001875e+09   0.99272970  0.05950161  -0.00000001  0.00000002  -0.00000001  0.00000002   0.99272970  0.05950161
1.002000e+09   0.99274227  0.05943748  -0.00000001  0.00000002  -0.00000001  0.00000002   0.99274227  0.05943748
1.002125e+09   0.99275482  0.05937345  -0.00000001  0.00000002  -0.00000001  0.00000002   0.99275482  0.05937345
1.002250e+09   0.99276733  0.05930953  -0.00000001  0.00000002  -0.00000001  0.00000002   0.99276733  0.05930953
1.002375e+09   0.99277980  0.05924571  -0.00000001  0.00000002  -0.00000001  0.00000002   0.99277980  0.05924571
1.002500e+09   0.99279224  0.05918200  -0.00000001  0.00000002  -0.00000001  0.00000002   0.99279224  0.05918200
1.002625e+09   0.99280465  0.05911840  -0.00000001  0.00000002  -0.00000001  0.00000002   0.99280465  0.05911840
1.002750e+09   0.99281702  0.05905490  -0.00000001  0.00000002  -0.00000001  0.00000002   0.99281702  0.05905490
1.002875e+09   0.99282936  0.05899151  -0.00000001  0.00000002  -0.00000001  0.00000002   0.99282936  0.05899151
1.003000e+09   0.99284166  0.05892822  -0.00000001  0.00000002  -0.00000001  0.00000002   0.99284166  0.05892822
1.003125e+09   0.99285394  0.05886503  -0.00000001  0.00000002  -0.00000001  0.00000002   0.99285394  0.05886503
1.003250e+09   0.99286617  0.05880195  -0.00000001  0.00000002  -0.00000001  0.00000002   0.99286617  0.05880195
1.003375e+09   0.99287838  0.05873897  -0.00000001  0.00000002  -0.00000001  0.00000002   0.99287838  0.05873897
1.003500e+09   0.99289055  0.05867610  -0.00000001  0.00000002  -0.00000001  0.00000002   0.99289055  0.05867610
1.003625e+09   0.99290269  0.05861332  -0.00000001  0.00000002  -0.00000001  0.00000002   0.99290269  0.05861332
1.003750e+09   0.99291479  0.05855065  -0.00000001  0.00000002  -0.00000001  0.00000002   0.99291479  0.05855065
1.003875e+09   0.99292687  0.05848809  -0.00000001  0.00000002  -0.00000001  0.00000002   0.99292687  0.05848809
1.004000e+09   0.99293891  0.05842562  -0.00000001  0.00000002  -0.00000001  0.00000002   0.99293891  0.05842562
1.004125e+09   0.99295091  0.05836326  -0.00000001  0.00000002  -0.00000001  0.00000002   0.99295091  0.05836326
1.004250e+09   0.99296289  0.05830100  -0.00000001  0.00000002  -0.00000001  0.00000002   0.99296289  0.05830100
1.004375e+09   0.99297483  0.05823884  -0.00000001  0.00000002  -0.00000001  0.00000002   0.99297483  0.05823884
1.004500e+09   0.99298674  0.05817678  -0.00000001  0.00000002  -0.00000001  0.00000002   0.99298674  0.05817678
1.004625e+09   0.99299862  0.05811483  -0.00000001  0.00000002  -0.00000001  0.00000002   0.99299862  0.05811483
1.004750e+09   0.99301046  0.05805297  -0.00000001  0.00000002  -0.00000001  0.00000002   0.99301046  0.05805297
1.004875e+09   0.99302228  0.05799121  -0.00000001  0.00000002  -0.00000001  0.00000002   0.99302228  0.05799121
1.005000e+09   0.99303406  0.05792956  -0.00000001  0.00000002  -0.00000001  0.00000002   0.99303406  0.05792956
1.005125e+09   0.99304581  0.05786800  -0.00000001  0.00000002  -0.00000001  0.00000002   0.99304581  0.05786800
1.005250e+09   0.99305753  0.05780655  -0.00000001  0.00000001  -0.00000001  0.00000001   0.99305753  0.05780655
1.005375e+09   0.99306922  0.05774519  -0.00000001  0.00000001  -0.00000001  0.00000001   0.99306922  0.05774519
1.005500e+09   0.99308087  0.05768393  -0.00000001  0.00000001  -0.00000001  0.00000001   0.99308087  0.05768393
1.005625e+09   0.99309250  0.05762277  -0.00000001  0.00000001  -0.00000001  0.00000001   0.99309250  0.05762277
1.005750e+09   0.99310409  0.05756171  -0.00000001  0.00000001  -0.00000001  0.00000001   0.99310409  0.05756171
1.005875e+09   0.99311566  0.05750075  -0.00000001  0.00000001  -0.00000001  0.00000001   0.99311566  0.05750075
1.006000e+09   0.99312719  0.05743988  -0.00000001  0.00000001  -0.00000001  0.00000001   0.99312719  0.05743988
1.006125e+09   0.99313869  0.05737911  -0.00000001  0.00000001  -0.00000001  0.00000001   0.99313869  0.05737911
1.006250e+09   0.99315016  0.05731844  -0.00000001  0.00000001  -0.00000001  0.00000001   0.99315016  0.05731844
1.006375e+09   0.99316160  0.05725787  -0.00000001  0.00000001  -0.00000001  0.00000001   0.99316160  0.05725787
1.006500e+09   0.99317301  0.05719740  -0.00000001  0.00000001  -0.00000001  0.00000001   0.99317301  0.05719740
1.006625e+09   0.99318439  0.05713702  -0.00000001  0.00000001  -0.00000001  0.00000001   0.99318439  0.05713702
1.006750e+09   0.99319574  0.05707674  -0.00000001  0.00000001  -0.00000001  0.00000001   0.99319574  0.05707674
1.006875e+09   0.99320705  0.05701655  -0.00000001  0.00000001  -0.00000001  0.00000001   0.99320705  0.05701655
1.007000e+09   0.99321834  0.05695646  -0.00000001  0.00000001  -0.00000001  0.00000001   0.99321834  0.05695646
1.007125e+09   0.99322960  0.05689647  -0.00000001  0.00000001  -0.00000001  0.00000001   0.99322960  0.05689647
1.007250e+09   0.99324083  0.05683657  -0.00000001  0.00000001  -0.00000001  0.00000001   0.99324083  0.05683657
1.007375e+09   0.99325203  0.05677676  -0.00000001  0.00000001  -0.00000001  0.00000001   0.99325203  0.05677676
1.007500e+09   0.99326320  0.05671706  -0.00000001  0.00000001  -0.00000001  0.00000001   0.99326320  0.05671706
1.007625e+09   0.99327434  0.05665744  -0.00000001  0.00000001  -0.00000001  0.00000001   0.99327434  0.05665744
1.007750e+09   0.99328545  0.05659792  -0.00000001  0.00000001  -0.00000001  0.00000001   0.99328545  0.05659792
1.007875e+09   0.99329653  0.05653850  -0.00000001  0.00000001  -0.00000001  0.00000001   0.99329653  0.05653850
1.008000e+09   0.99330758  0.05647917  -0.00000001  0.00000001  -0.00000001  0.00000001   0.99330758  0.05647917
1.008125e+09   0.99331860  0.05641993  -0.00000001  0.00000001  -0.00000001  0.00000001   0.99331860  0.05641993
1.008250e+09   0.99332960  0.05636078  -0.00000001  0.00000001  -0.00000001  0.00000001   0.99332960  0.05636078
1.008375e+09   0.99334056  0.05630173  -0.00000001  0.00000001  -0.00000001  0.00000001   0.99334056  0.05630173
1.008500e+09   0.99335150  0.05624278  -0.00000001  0.00000001  -0.00000001  0.00000001   0.99335150  0.05624278
1.008625e+09   0.99336240  0.05618391  -0.00000001  0.00000001  -0.00000001  0.00000001   0.99336240  0.05618391
1.008750e+09   0.99337328  0.05612514  -0.00000001  0.00000001  -0.00000001  0.00000001   0.99337328  0.05612514
1.008875e+09   0.99338413  0.05606646  -0.00000001  0.00000001  -0.00000001  0.00000001   0.99338413  0.05606646
1.009000e+09   0.99339495  0.05600787  -0.00000001  0.00000001  -0.00000001  0.00000001   0.99339495  0.05600787
1.009125e+09   0.99340575  0.05594937  -0.00000001  0.00000001  -0.00000001  0.00000001   0.99340575  0.05594937
1.009250e+09   0.99341651  0.05589097  -0.00000001  0.00000001  -0.00000001  0.00000001   0.99341651  0.05589097
1.009375e+09   0.99342725  0.05583266  -0.00000001  0.00000001  -0.00000001  0.00000001   0.99342725  0.05583266
1.009500e+09   0.99343796  0.05577443  -0.00000001  0.00000001  -0.00000001  0.00000001   0.99343796  0.05577443
1.009625e+09   0.99344864  0.05571630  -0.00000001  0.00000001  -0.00000001  0.00000001   0.99344864  0.05571630
1.009750e+09   0.99345929  0.05565826  -0.00000001  0.00000001  -0.00000001  0.00000001   0.99345929  0.05565826
1.009875e+09   0.99346992  0.05560031  -0.00000001  0.00000001  -0.00000001  0.00000001   0.99346992  0.05560031
1.010000e+09   0.99348052  0.05554245  -0.00000001  0.00000001  -0.00000001  0.00000001   0.99348052  0.05554245
1.010125e+09   0.99349109  0.05548468  -0.00000001  0.00000001  -0.00000001  0.00000001   0.99349109  0.05548468
1.010250e+09   0.99350163  0.05542700  -0.00000001  0.00000001  -0.00000001  0.00000001   0.99350163  0.05542700
1.010375e+09   0.99351214  0.05536941  -0.00000001  0.00000001  -0.00000001  0.00000001   0.99351214  0.05536941
1.010500e+09   0.99352263  0.05531191  -0.00000001  0.00000001  -0.00000001  0.00000001   0.99352263  0.05531191
1.010625e+09   0.99353309  0.05525449  -0.00000001  0.00000001  -0.00000001  0.00000001   0.99353309  0.05525449
1.010750e+09   0.99354353  0.05519717  -0.00000001  0.00000001  -0.00000001  0.00000001   0.99354353  0.05519717
1.010875e+09   0.99355393  0.05513993  -0.00000001  0.00000001  -0.00000001  0.00000001   0.99355393  0.05513993
1.011000e+09   0.99356431  0.05508279  -0.00000001  0.00000001  -0.00000001  0.00000001   0.99356431  0.05508279
1.011125e+09   0.99357467  0.05502573  -0.00000001  0.00000001  -0.00000001  0.00000001   0.99357467  0.05502573
1.011250e+09   0.99358499  0.05496876  -0.00000001  0.00000001  -0.00000001  0.00000001   0.99358499  0.05496876
1.011375e+09   0.99359529  0.05491187  -0.00000001  0.00000001  -0.00000001  0.00000001   0.99359529  0.05491187
1.011500e+09   0.99360557  0.05485508  -0.00000001  0.00000001  -0.00000001  0.00000001   0.99360557  0.05485508
1.011625e+09   0.99361581  0.05479837  -0.00000001  0.00000001  -0.00000001  0.00000001   0.99361581  0.05479837
1.011750e+09   0.99362603  0.05474175  -0.00000001  0.00000001  -0.00000001  0.00000001   0.99362603  0.05474175
1.011875e+09   0.99363623  0.05468521  -0.00000001  0.00000001  -0.00000001  0.00000001   0.99363623  0.05468521
1.012000e+09   0.99364640  0.05462876  -0.00000001  0.00000001  -0.00000001  0.00000001   0.99364640  0.05462876
1.012125e+09   0.99365654  0.05457240  -0.00000001  0.00000001  -0.00000001  0.00000001   0.99365654  0.05457240
1.012250e+09   0.99366665  0.05451613  -0.00000001  0.00000001  -0.00000001  0.00000001   0.99366665  0.05451613
1.012375e+09   0.99367674  0.05445994  -0.00000001  0.00000001  -0.00000001  0.00000001   0.99367674  0.05445994
1.012500e+09   0.99368681  0.05440383  -0.00000001  0.00000001  -0.00000001  0.00000001   0.99368681  0.05440383
1.012625e+09   0.99369685  0.05434781  -0.00000001  0.00000001  -0.00000001  0.00000001   0.99369685  0.05434781
1.012750e+09   0.99370686  0.05429188  -0.00000001  0.00000001  -0.00000001  0.00000001   0.99370686  0.05429188
1.012875e+09   0.99371685  0.05423603  -0.00000001  0.00000001  -0.00000001  0.00000001   0.99371685  0.05423603
1.013000e+09   0.99372681  0.05418027  -0.00000001  0.00000001  -0.00000001  0.00000001   0.99372681  0.05418027
1.013125e+09   0.99373675  0.05412459  -0.00000001  0.00000001  -0.00000001  0.00000001   0.99373675  0.05412459
1.013250e+09   0.99374666  0.05406899  -0.00000001  0.00000001  -0.00000001  0.00000001   0.99374666  0.05406899
1.013375e+09   0.99375654  0.05401348  -0.00000001  0.00000001  -0.00000001  0.00000001   0.99375654  0.05401348
1.013500e+09   0.99376640  0.05395806  -0.00000001  0.00000001  -0.00000001  0.00000001   0.99376640  0.05395806
1.013625e+09   0.99377624  0.05390271  -0.00000001  0.00000001  -0.00000001  0.00000001   0.99377624  0.05390271
1.013750e+09   0.99378605  0.05384745  -0.00000001  0.00000001  -0.00000001  0.00000001   0.99378605  0.05384745
1.013875e+09   0.99379584  0.05379228  -0.00000001  0.00000001  -0.00000001  0.00000001   0.99379584  0.05379228
1.014000e+09   0.99380560  0.05373719  -0.00000001  0.00000001  -0.00000001  0.00000001   0.99380560  0.05373719
1.014125e+09   0.99381533  0.05368218  -0.00000001  0.00000001  -0.00000001  0.00000001   0.99381533  0.05368218
1.014250e+09   0.99382504  0.05362725  -0.00000001  0.00000001  -0.00000001  0.00000001   0.99382504  0.05362725
1.014375e+09   0.99383473  0.05357240  -0.00000001  0.00000001  -0.00000001  0.00000001   0.99383473  0.05357240
1.014500e+09   0.99384439  0.05351764  -0.00000001  0.00000001  -0.00000001  0.00000001   0.99384439  0.05351764
1.014625e+09   0.99385403  0.05346296  -0.00000001  0.00000001  -0.00000001  0.00000001   0.99385403  0.05346296
1.014750e+09   0.99386365  0.05340836  -0.00000001  0.00000001  -0.00000001  0.00000001   0.99386365  0.05340836
1.014875e+09   0.99387324  0.05335385  -0.00000001  0.00000001  -0.00000001  0.00000001   0.99387324  0.05335385
1.015000e+09   0.99388280  0.05329941  -0.00000001  0.00000001  -0.00000001  0.00000001   0.99388280  0.05329941
1.015125e+09   0.99389234  0.05324506  -0.00000001  0.00000001  -0.00000001  0.00000001   0.99389234  0.05324506
1.015250e+09   0.99390186  0.05319079  -0.00000001  0.00000001  -0.00000001  0.00000001   0.99390186  0.05319079
1.015375e+09   0.99391135  0.05313659  -0.00000001  0.00000001  -0.00000001  0.00000001   0.99391135  0.05313659
1.015500e+09   0.99392082  0.05308248  -0.00000001  0.00000001  -0.00000001  0.00000001   0.99392082  0.05308248
1.015625e+09   0.99393027  0.05302845  -0.00000001  0.00000001  -0.00000001  0.00000001   0.99393027  0.05302845
1.015750e+09   0.99393969  0.05297450  -0.00000001  0.00000001  -0.00000001  0.00000001   0.99393969  0.05297450
1.015875e+09   0.99394909  0.05292063  -0.00000001  0.00000001  -0.00000001  0.00000001   0.99394909  0.05292063
1.016000e+09   0.99395847  0.05286684  -0.00000001  0.00000001  -0.00000001  0.00000001   0.99395847  0.05286684
1.016125e+09   0.99396782  0.05281313  -0.00000001  0.00000001  -0.00000001  0.00000001   0.99396782  0.05281313
1.016250e+09   0.99397715  0.05275950  -0.00000001  0.00000001  -0.00000001  0.00000001   0.99397715  0.05275950
1.016375e+09   0.99398645  0.05270595  -0.00000001  0.00000001  -0.00000001  0.00000001   0.99398645  0.05270595
1.016500e+09   0.99399573  0.05265248  -0.00000001  0.00000001  -0.00000001  0.00000001   0.99399573  0.05265248
1.016625e+09   0.99400499  0.05259908  -0.00000000  0.00000001  -0.00000000  0.00000001   0.99400499  0.05259908
1.016750e+09   0.99401423  0.05254577  -0.00000000  0.00000001  -0.00000000  0.00000001   0.99401423  0.05254577
1.016875e+09   0.99402344  0.05249253  -0.00000000  0.00000001  -0.00000000  0.00000001   0.99402344  0.05249253
1.017000e+09   0.99403263  0.05243937  -0.00000000  0.00000001  -0.00000000  0.00000001   0.99403263  0.05243937
1.017125e+09   0.99404180  0.05238629  -0.00000000  0.00000001  -0.00000000  0.00000001   0.99404180  0.05238629
1.017250e+09   0.99405094  0.05233329  -0.00000000  0.00000001  -0.00000000  0.00000001   0.99405094  0.05233329
1.017375e+09   0.99406006  0.05228037  -0.00000000  0.00000001  -0.00000000  0.00000001   0.99406006  0.05228037
1.017500e+09   0.99406916  0.05222752  -0.00000000  0.00000001  -0.00000000  0.00000001   0.99406916  0.05222752
1.017625e+09   0.99407824  0.05217475  -0.00000000  0.00000001  -0.00000000  0.00000001   0.99407824  0.05217475
1.017750e+09   0.99408729  0.05212206  -0.00000000  0.00000001  -0.00000000  0.00000001   0.99408729  0.05212206
1.017875e+09   0.99409632  0.05206944  -0.00000000  0.00000001  -0.00000000  0.00000001   0.99409632  0.05206944
1.018000e+09   0.99410533  0.05201691  -0.00000000  0.00000001  -0.00000000  0.00000001   0.99410533  0.05201691
1.018125e+09   0.99411432  0.05196444  -0.00000000  0.00000001  -0.00000000  0.00000001   0.99411432  0.05196444
1.018250e+09   0.99412329  0.05191206  -0.00000000  0.00000001  -0.00000000  0.00000001   0.99412329  0.05191206
1.018375e+09   0.99413223  0.05185975  -0.00000000  0.00000001  -0.00000000  0.00000001   0.99413223  0.05185975
1.018500e+09   0.99414115  0.05180752  -0.00000000  0.00000001  -0.00000000  0.00000001   0.99414115  0.05180752
1.018625e+09   0.99415005  0.05175536  -0.00000000  0.00000001  -0.00000000  0.00000001   0.99415005  0.05175536
1.018750e+09   0.99415892  0.05170328  -0.00000000  0.00000001  -0.00000000  0.00000001   0.99415892  0.05170328
1.018875e+09   0.99416778  0.05165127  -0.00000000  0.00000001  -0.00000000  0.00000001   0.99416778  0.05165127
1.019000e+09   0.99417661  0.05159934  -0.00000000  0.00000001  -0.00000000  0.00000001   0.99417661  0.05159934
1.019125e+09   0.99418542  0.05154749  -0.00000000  0.00000001  -0.00000000  0.00000001   0.99418542  0.05154749
1.019250e+09   0.99419421  0.05149571  -0.00000000  0.00000001  -0.00000000  0.00000001   0.99419421  0.05149571
1.019375e+09   0.99420298  0.05144400  -0.00000000  0.00000001  -0.00000000  0.00000001   0.99420298  0.05144400
1.019500e+09   0.99421173  0.05139237  -0.00000000  0.00000001  -0.00000000  0.00000001   0.99421173  0.05139237
1.019625e+09   0.99422046  0.05134081  -0.00000000  0.00000001  -0.00000000  0.00000001   0.99422046  0.05134081
1.019750e+09   0.99422916  0.05128933  -0.00000000  0.00000001  -0.00000000  0.00000001   0.99422916  0.05128933
1.019875e+09   0.99423784  0.05123792  -0.00000000  0.00000001  -0.00000000  0.00000001   0.99423784  0.05123792
1.020000e+09   0.99424651  0.05118659  -0.00000000  0.00000001  -0.00000000  0.00000001   0.99424651  0.05118659
1.020125e+09   0.99425515  0.05113533  -0.00000000  0.00000001  -0.00000000  0.00000001   0.99425515  0.05113533
1.020250e+09   0.99426377  0.05108414  -0.00000000  0.00000001  -0.00000000  0.00000001   0.99426377  0.05108414
1.020375e+09   0.99427236  0.05103303  -0.00000000  0.00000001  -0.00000000  0.00000001   0.99427236  0.05103303
1.020500e+09   0.99428094  0.05098199  -0.00000000  0.00000001  -0.00000000  0.00000001   0.99428094  0.05098199
1.020625e+09   0.99428950  0.05093102  -0.00000000  0.00000001  -0.00000000  0.00000001   0.99428950  0.05093102
1.020750e+09   0.99429804  0.05088012  -0.00000000  0.00000001  -0.00000000  0.00000001   0.99429804  0.05088012
1.020875e+09   0.99430655  0.05082930  -0.00000000  0.00000001  -0.00000000  0.00000001   0.99430655  0.05082930
1.021000e+09   0.99431505  0.05077855  -0.00000000  0.00000001  -0.00000000  0.00000001   0.99431505  0.05077855
1.021125e+09   0.99432352  0.05072787  -0.00000000  0.00000001  -0.00000000  0.00000001   0.99432352  0.05072787
1.021250e+09   0.99433197  0.05067727  -0.00000000  0.00000001  -0.00000000  0.00000001   0.99433197  0.05067727
1.021375e+09   0.99434041  0.05062674  -0.00000000  0.00000001  -0.00000000  0.00000001   0.99434041  0.05062674
1.021500e+09   0.99434882  0.05057627  -0.00000000  0.00000001  -0.00000000  0.00000001   0.99434882  0.05057627
1.021625e+09   0.99435721  0.05052588  -0.00000000  0.00000001  -0.00000000  0.00000001   0.99435721  0.05052588
1.021750e+09   0.99436558  0.05047557  -0.00000000  0.00000001  -0.00000000  0.00000001   0.99436558  0.05047557
1.021875e+09   0.99437394  0.05042532  -0.00000000  0.00000001  -0.00000000  0.00000001   0.99437394  0.05042532
1.022000e+09   0.99438227  0.05037514  -0.00000000  0.00000001  -0.00000000  0.00000001   0.99438227  0.05037514
1.022125e+09   0.99439058  0.05032504  -0.00000000  0.00000001  -0.00000000  0.00000001   0.99439058  0.05032504
1.022250e+09   0.99439887  0.05027500  -0.00000000  0.00000001  -0.00000000  0.00000001   0.99439887  0.05027500
1.022375e+09   0.99440714  0.05022504  -0.00000000  0.00000001  -0.00000000  0.00000001   0.99440714  0.05022504
1.022500e+09   0.99441540  0.05017515  -0.00000000  0.00000001  -0.00000000  0.00000001   0.99441540  0.05017515
1.022625e+09   0.99442363  0.05012532  -0.00000000  0.00000001  -0.00000000  0.00000001   0.99442363  0.05012532
1.022750e+09   0.99443184  0.05007557  -0.00000000  0.00000001  -0.00000000  0.00000001   0.99443184  0.05007557
1.022875e+09   0.99444003  0.05002589  -0.00000000  0.00000001  -0.00000000  0.00000001   0.99444003  0.05002589
1.023000e+09   0.99444821  0.04997627  -0.00000000  0.00000001  -0.00000000  0.00000001   0.99444821  0.04997627
1.023125e+09   0.99445636  0.04992673  -0.00000000  0.00000001  -0.00000000  0.00000001   0.99445636  0.04992673
1.023250e+09   0.99446449  0.04987725  -0.00000000  0.00000001  -0.00000000  0.00000001   0.99446449  0.04987725
1.023375e+09   0.99447261  0.04982785  -0.00000000  0.00000001  -0.00000000  0.00000001   0.99447261  0.04982785
1.023500e+09   0.99448070  0.04977851  -0.00000000  0.00000001  -0.00000000  0.00000001   0.99448070  0.04977851
1.023625e+09   0.99448878  0.04972925  -0.00000000  0.00000001  -0.00000000  0.00000001   0.99448878  0.04972925
1.023750e+09   0.99449684  0.04968005  -0.00000000  0.00000001  -0.00000000  0.00000001   0.99449684  0.04968005
1.023875e+09   0.99450487  0.04963092  -0.00000000  0.00000001  -0.00000000  0.00000001   0.99450487  0.04963092
1.024000e+09   0.99451289  0.04958186  -0.00000000  0.00000001  -0.00000000  0.00000001   0.99451289  0.04958186
1.024125e+09   0.99452089  0.04953286  -0.00000000  0.00000001  -0.00000000  0.00000001   0.99452089  0.04953286
1.024250e+09   0.99452887  0.04948394  -0.00000000  0.00000001  -0.00000000  0.00000001   0.99452887  0.04948394
1.024375e+09   0.99453683  0.04943508  -0.00000000  0.00000001  -0.00000000  0.00000001   0.99453683  0.04943508
1.024500e+09   0.99454477  0.04938629  -0.00000000  0.00000001  -0.00000000  0.00000001   0.99454477  0.04938629
1.024625e+09   0.99455270  0.04933757  -0.00000000  0.00000001  -0.00000000  0.00000001   0.99455270  0.04933757
1.024750e+09   0.99456060  0.04928892  -0.00000000  0.00000001  -0.00000000  0.00000001   0.99456060  0.04928892
1.024875e+09   0.99456849  0.04924033  -0.00000000  0.00000001  -0.00000000  0.00000001   0.99456849  0.04924033
1.025000e+09   0.99457635  0.04919181  -0.00000000  0.00000001  -0.00000000  0.00000001   0.99457635  0.04919181
1.025125e+09   0.99458420  0.04914336  -0.00000000  0.00000001  -0.00000000  0.00000001   0.99458420  0.04914336
1.025250e+09   0.99459203  0.04909497  -0.00000000  0.00000001  -0.00000000  0.00000001   0.99459203  0.04909497
1.025375e+09   0.99459985  0.04904666  -0.00000000  0.00000001  -0.00000000  0.00000001   0.99459985  0.04904666
1.025500e+09   0.99460764  0.04899840  -0.00000000  0.00000001  -0.00000000  0.00000001   0.99460764  0.04899840
1.025625e+09   0.99461541  0.04895022  -0.00000000  0.00000001  -0.00000000  0.00000001   0.99461541  0.04895022
1.025750e+09   0.99462317  0.04890210  -0.00000000  0.00000001  -0.00000000  0.00000001   0.99462317  0.04890210
1.025875e+09   0.99463091  0.04885404  -0.00000000  0.00000001  -0.00000000  0.00000001   0.99463091  0.04885404
1.026000e+09   0.99463863  0.04880606  -0.00000000  0.00000001  -0.00000000  0.00000001   0.99463863  0.04880606
1.026125e+09   0.99464633  0.04875813  -0.00000000  0.00000001  -0.00000000  0.00000001   0.99464633  0.04875813
1.026250e+09   0.99465401  0.04871028  -0.00000000  0.00000001  -0.00000000  0.00000001   0.99465401  0.04871028
1.026375e+09   0.99466168  0.04866249  -0.00000000  0.00000001  -0.00000000  0.00000001   0.99466168  0.04866249
1.026500e+09   0.99466933  0.04861476  -0.00000000  0.00000001  -0.00000000  0.00000001   0.99466933  0.04861476
1.026625e+09   0.99467696  0.04856710  -0.00000000  0.00000001  -0.00000000  0.00000001   0.99467696  0.04856710
1.026750e+09   0.99468457  0.04851951  -0.00000000  0.00000001  -0.00000000  0.00000001   0.99468457  0.04851951
1.026875e+09   0.99469216  0.04847198  -0.00000000  0.00000001  -0.00000000  0.00000001   0.99469216  0.04847198
1.027000e+09   0.99469974  0.04842451  -0.00000000  0.00000001  -0.00000000  0.00000001   0.99469974  0.04842451
1.027125e+09   0.99470730  0.04837711  -0.00000000  0.00000001  -0.00000000  0.00000001   0.99470730  0.04837711
1.027250e+09   0.99471484  0.04832977  -0.00000000  0.00000001  -0.00000000  0.00000001   0.99471484  0.04832977
1.027375e+09   0.99472236  0.04828250  -0.00000000  0.00000001  -0.00000000  0.00000001   0.99472236  0.04828250
1.027500e+09   0.99472987  0.04823529  -0.00000000  0.00000001  -0.00000000  0.00000001   0.99472987  0.04823529
1.027625e+09   0.99473735  0.04818815  -0.00000000  0.00000001  -0.00000000  0.00000001   0.99473735  0.04818815
1.027750e+09   0.99474482  0.04814107  -0.00000000  0.00000001  -0.00000000  0.00000001   0.99474482  0.04814107
1.027875e+09   0.99475228  0.04809405  -0.00000000  0.00000001  -0.00000000  0.00000001   0.99475228  0.04809405
1.028000e+09   0.99475971  0.04804710  -0.00000000  0.00000001  -0.00000000  0.00000001   0.99475971  0.04804710
1.028125e+09   0.99476713  0.04800021  -0.00000000  0.00000001  -0.00000000  0.00000001   0.99476713  0.04800021
1.028250e+09   0.99477453  0.04795338  -0.00000000  0.00000001  -0.00000000  0.00000001   0.99477453  0.04795338
1.028375e+09   0.99478192  0.04790662  -0.00000000  0.00000001  -0.00000000  0.00000001   0.99478192  0.04790662
1.028500e+09   0.99478928  0.04785991  -0.00000000  0.00000001  -0.00000000  0.00000001   0.99478928  0.04785991
1.028625e+09   0.99479663  0.04781328  -0.00000000  0.00000001  -0.00000000  0.00000001   0.99479663  0.04781328
1.028750e+09   0.99480397  0.04776670  -0.00000000  0.00000001  -0.00000000  0.00000001   0.99480397  0.04776670
1.028875e+09   0.99481128  0.04772019  -0.00000000  0.00000001  -0.00000000  0.00000001   0.99481128  0.04772019
1.029000e+09   0.99481858  0.04767374  -0.00000000  0.00000001  -0.00000000  0.00000001   0.99481858  0.04767374
1.029125e+09   0.99482586  0.04762735  -0.00000000  0.00000001  -0.00000000  0.00000001   0.99482586  0.04762735
1.029250e+09   0.99483313  0.04758102  -0.00000000  0.00000001  -0.00000000  0.00000001   0.99483313  0.04758102
1.029375e+09   0.99484038  0.04753476  -0.00000000  0.00000001  -0.00000000  0.00000001   0.99484038  0.04753476
1.029500e+09   0.99484761  0.04748856  -0.00000000  0.00000001  -0.00000000  0.00000001   0.99484761  0.04748856
1.029625e+09   0.99485483  0.04744242  -0.00000000  0.00000001  -0.00000000  0.00000001   0.99485483  0.04744242
1.029750e+09   0.99486202  0.04739634  -0.00000000  0.00000001  -0.00000000  0.00000001   0.99486202  0.04739634
1.029875e+09   0.99486921  0.04735032  -0.00000000  0.00000001  -0.00000000  0.00000001   0.99486921  0.04735032
1.030000e+09   0.99487637  0.04730436  -0.00000000  0.00000001  -0.00000000  0.00000001   0.99487637  0.04730436
1.030125e+09   0.99488352  0.04725847  -0.00000000  0.00000001  -0.00000000  0.00000001   0.99488352  0.04725847
1.030250e+09   0.99489065  0.04721263  -0.00000000  0.00000001  -0.00000000  0.00000001   0.99489065  0.04721263
1.030375e+09   0.99489777  0.04716686  -0.00000000  0.00000001  -0.00000000  0.00000001   0.99489777  0.04716686
1.030500e+09   0.99490487  0.04712114  -0.00000000  0.00000001  -0.00000000  0.00000001   0.99490487  0.04712114
1.030625e+09   0.99491195  0.04707549  -0.00000000  0.00000001  -0.00000000  0.00000001   0.99491195  0.04707549
1.030750e+09   0.99491902  0.04702990  -0.00000000  0.00000001  -0.00000000  0.00000001   0.99491902  0.04702990
1.030875e+09   0.99492607  0.04698437  -0.00000000  0.00000001  -0.00000000  0.00000001   0.99492607  0.04698437
1.031000e+09   0.99493311  0.04693890  -0.00000000  0.00000001  -0.00000000  0.00000001   0.99493311  0.04693890
1.031125e+09   0.99494013  0.04689348  -0.00000000  0.00000001  -0.00000000  0.00000001   0.99494013  0.04689348
1.031250e+09   0.99494713  0.04684813  -0.00000000  0.00000001  -0.00000000  0.00000001   0.99494713  0.04684813
1.031375e+09   0.99495412  0.04680284  -0.00000000  0.00000001  -0.00000000  0.00000001   0.99495412  0.04680284
1.031500e+09   0.99496109  0.04675761  -0.00000000  0.00000001  -0.00000000  0.00000001   0.99496109  0.04675761
1.031625e+09   0.99496804  0.04671243  -0.00000000  0.00000001  -0.00000000  0.00000001   0.99496804  0.04671243
1.031750e+09   0.99497498  0.04666732  -0.00000000  0.00000001  -0.00000000  0.00000001   0.99497498  0.04666732
1.031875e+09   0.99498191  0.04662227  -0.00000000  0.00000001  -0.00000000  0.00000001   0.99498191  0.04662227
1.032000e+09   0.99498881  0.04657727  -0.00000000  0.00000001  -0.00000000  0.00000001   0.99498881  0.04657727
1.032125e+09   0.99499571  0.04653233  -0.00000000  0.00000001  -0.00000000  0.00000001   0.99499571  0.04653233
1.032250e+09   0.99500258  0.04648746  -0.00000000  0.00000001  -0.00000000  0.00000001   0.99500258  0.04648746
1.032375e+09   0.99500944  0.04644264  -0.00000000  0.00000001  -0.00000000  0.00000001   0.99500944  0.04644264
1.032500e+09   0.99501629  0.04639788  -0.00000000  0.00000001  -0.00000000  0.00000001   0.99501629  0.04639788
1.032625e+09   0.99502312  0.04635317  -0.00000000  0.00000001  -0.00000000  0.00000001   0.99502312  0.04635317
1.032750e+09   0.99502993  0.04630853  -0.00000000  0.00000001  -0.00000000  0.00000001   0.99502993  0.04630853
1.032875e+09   0.99503673  0.04626394  -0.00000000  0.00000000  -0.00000000  0.00000000   0.99503673  0.04626394
1.033000e+09   0.99504351  0.04621941  -0.00000000  0.00000000  -0.00000000  0.00000000   0.99504351  0.04621941
1.033125e+09   0.99505028  0.04617494  -0.00000000  0.00000000  -0.00000000  0.00000000   0.99505028  0.04617494
1.033250e+09   0.99505704  0.04613053  -0.00000000  0.00000000  -0.00000000  0.00000000   0.99505704  0.04613053
1.033375e+09   0.99506377  0.04608618  -0.00000000  0.00000000  -0.00000000  0.00000000   0.99506377  0.04608618
1.033500e+09   0.99507050  0.04604188  -0.00000000  0.00000000  -0.00000000  0.00000000   0.99507050  0.04604188
1.033625e+09   0.99507720  0.04599764  -0.00000000  0.00000000  -0.00000000  0.00000000   0.99507720  0.04599764
1.033750e+09   0.99508389  0.04595346  -0.00000000  0.00000000  -0.00000000  0.00000000   0.99508389  0.04595346
1.033875e+09   0.99509057  0.04590933  -0.00000000  0.00000000  -0.00000000  0.00000000   0.99509057  0.04590933
1.034000e+09   0.99509723  0.04586526  -0.00000000  0.00000000  -0.00000000  0.00000000   0.99509723  0.04586526
1.034125e+09   0.99510388  0.04582125  -0.00000000  0.00000000  -0.00000000  0.00000000   0.99510388  0.04582125
1.034250e+09   0.99511051  0.04577730  -0.00000000  0.00000000  -0.00000000  0.00000000   0.99511051  0.04577730
1.034375e+09   0.99511713  0.04573340  -0.00000000  0.00000000  -0.00000000  0.00000000   0.99511713  0.04573340
1.034500e+09   0.99512373  0.04568955  -0.00000000  0.00000000  -0.00000000  0.00000000   0.99512373  0.04568955
1.034625e+09   0.99513032  0.04564577  -0.00000000  0.00000000  -0.00000000  0.00000000   0.99513032  0.04564577
1.034750e+09   0.99513689  0.04560204  -0.00000000  0.00000000  -0.00000000  0.00000000   0.99513689  0.04560204
1.034875e+09   0.99514345  0.04555837  -0.00000000  0.00000000  -0.00000000  0.00000000   0.99514345  0.04555837
1.035000e+09   0.99514999  0.04551475  -0.00000000  0.00000000  -0.00000000  0.00000000   0.99514999  0.04551475
1.035125e+09   0.99515652  0.04547119  -0.00000000  0.00000000  -0.00000000  0.00000000   0.99515652  0.04547119
1.035250e+09   0.99516304  0.04542768  -0.00000000  0.00000000  -0.00000000  0.00000000   0.99516304  0.04542768
1.035375e+09   0.99516954  0.04538423  -0.00000000  0.00000000  -0.00000000  0.00000000   0.99516954  0.04538423
1.035500e+09   0.99517602  0.04534084  -0.00000000  0.00000000  -0.00000000  0.00000000   0.99517602  0.04534084
1.035625e+09   0.99518249  0.04529750  -0.00000000  0.00000000  -0.00000000  0.00000000   0.99518249  0.04529750
1.035750e+09   0.99518895  0.04525421  -0.00000000  0.00000000  -0.00000000  0.00000000   0.99518895  0.04525421
1.035875e+09   0.99519539  0.04521098  -0.00000000  0.00000000  -0.00000000  0.00000000   0.99519539  0.04521098
1.036000e+09   0.99520182  0.04516781  -0.00000000  0.00000000  -0.00000000  0.00000000   0.99520182  0.04516781
1.036125e+09   0.99520823  0.04512469  -0.00000000  0.00000000  -0.00000000  0.00000000   0.99520823  0.04512469
1.036250e+09   0.99521463  0.04508162  -0.00000000  0.00000000  -0.00000000  0.00000000   0.99521463  0.04508162
1.036375e+09   0.99522102  0.04503861  -0.00000000  0.00000000  -0.00000000  0.00000000   0.99522102  0.04503861
1.036500e+09   0.99522739  0.04499566  -0.00000000  0.00000000  -0.00000000  0.00000000   0.99522739  0.04499566
1.036625e+09   0.99523374  0.04495276  -0.00000000  0.00000000  -0.00000000  0.00000000   0.99523374  0.04495276
1.036750e+09   0.99524009  0.04490991  -0.00000000  0.00000000  -0.00000000  0.00000000   0.99524009  0.04490991
1.036875e+09   0.99524641  0.04486712  -0.00000000  0.00000000  -0.00000000  0.00000000   0.99524641  0.04486712
1.037000e+09   0.99525273  0.04482438  -0.00000000  0.00000000  -0.00000000  0.00000000   0.99525273  0.04482438
1.037125e+09   0.99525903  0.04478169  -0.00000000  0.00000000  -0.00000000  0.00000000   0.99525903  0.04478169
1.037250e+09   0.99526532  0.04473906  -0.00000000  0.00000000  -0.00000000  0.00000000   0.99526532  0.04473906
1.037375e+09   0.99527159  0.04469648  -0.00000000  0.00000000  -0.00000000  0.00000000   0.99527159  0.04469648
1.037500e+09   0.99527785  0.04465396  -0.00000000  0.00000000  -0.00000000  0.00000000   0.99527785  0.04465396
1.037625e+09   0.99528409  0.04461149  -0.00000000  0.00000000  -0.00000000  0.00000000   0.99528409  0.04461149
1.037750e+09   0.99529032  0.04456907  -0.00000000  0.00000000  -0.00000000  0.00000000   0.99529032  0.04456907
1.037875e+09   0.99529654  0.04452671  -0.00000000  0.00000000  -0.00000000  0.00000000   0.99529654  0.04452671
1.038000e+09   0.99530274  0.04448440  -0.00000000  0.00000000  -0.00000000  0.00000000   0.99530274  0.04448440
1.038125e+09   0.99530894  0.04444214  -0.00000000  0.00000000  -0.00000000  0.00000000   0.99530894  0.04444214
1.038250e+09   0.99531511  0.04439993  -0.00000000  0.00000000  -0.00000000  0.00000000   0.99531511  0.04439993
1.038375e+09   0.99532127  0.04435778  -0.00000000  0.00000000  -0.00000000  0.00000000   0.99532127  0.04435778
1.038500e+09   0.99532742  0.04431568  -0.00000000  0.00000000  -0.00000000  0.00000000   0.99532742  0.04431568
1.038625e+09   0.99533356  0.04427363  -0.00000000  0.00000000  -0.00000000  0.00000000   0.99533356  0.04427363
1.038750e+09   0.99533968  0.04423164  -0.00000000  0.00000000  -0.00000000  0.00000000   0.99533968  0.04423164
1.038875e+09   0.99534579  0.04418970  -0.00000000  0.00000000  -0.00000000  0.00000000   0.99534579  0.04418970
1.039000e+09   0.99535189  0.04414781  -0.00000000  0.00000000  -0.00000000  0.00000000   0.99535189  0.04414781
1.039125e+09   0.99535797  0.04410597  -0.00000000  0.00000000  -0.00000000  0.00000000   0.99535797  0.04410597
1.039250e+09   0.99536404  0.04406418  -0.00000000  0.00000000  -0.00000000  0.00000000   0.99536404  0.04406418
1.039375e+09   0.99537009  0.04402245  -0.00000000  0.00000000  -0.00000000  0.00000000   0.99537009  0.04402245
1.039500e+09   0.99537614  0.04398076  -0.00000000  0.00000000  -0.00000000  0.00000000   0.99537614  0.04398076
1.039625e+09   0.99538217  0.04393913  -0.00000000  0.00000000  -0.00000000  0.00000000   0.99538217  0.04393913
1.039750e+09   0.99538818  0.04389755  -0.00000000  0.00000000  -0.00000000  0.00000000   0.99538818  0.04389755
1.039875e+09   0.99539419  0.04385602  -0.00000000  0.00000000  -0.00000000  0.00000000   0.99539419  0.04385602
1.040000e+09   0.99540018  0.04381455  -0.00000000  0.00000000  -0.00000000  0.00000000   0.99540018  0.04381455
1.040125e+09   0.99540615  0.04377312  -0.00000000  0.00000000  -0.00000000  0.00000000   0.99540615  0.04377312
1.040250e+09   0.99541212  0.04373175  -0.00000000  0.00000000  -0.00000000  0.00000000   0.99541212  0.04373175
1.040375e+09   0.99541807  0.04369042  -0.00000000  0.00000000  -0.00000000  0.00000000   0.99541807  0.04369042
1.040500e+09   0.99542401  0.04364915  -0.00000000  0.00000000  -0.00000000  0.00000000   0.99542401  0.04364915
1.040625e+09   0.99542993  0.04360792  -0.00000000  0.00000000  -0.00000000  0.00000000   0.99542993  0.04360792
1.040750e+09   0.99543584  0.04356675  -0.00000000  0.00000000  -0.00000000  0.00000000   0.99543584  0.04356675
1.040875e+09   0.99544174  0.04352563  -0.00000000  0.00000000  -0.00000000  0.00000000   0.99544174  0.04352563
1.041000e+09   0.99544763  0.04348456  -0.00000000  0.00000000  -0.00000000  0.00000000   0.99544763  0.04348456
1.041125e+09   0.99545350  0.04344354  -0.00000000  0.00000000  -0.00000000  0.00000000   0.99545350  0.04344354
1.041250e+09   0.99545936  0.04340257  -0.00000000  0.00000000  -0.00000000  0.00000000   0.99545936  0.04340257
1.041375e+09   0.99546521  0.04336165  -0.00000000  0.00000000  -0.00000000  0.00000000   0.99546521  0.04336165
1.041500e+09   0.99547105  0.04332078  -0.00000000  0.00000000  -0.00000000  0.00000000   0.99547105  0.04332078
1.041625e+09   0.99547687  0.04327996  -0.00000000  0.00000000  -0.00000000  0.00000000   0.99547687  0.04327996
1.041750e+09   0.99548268  0.04323918  -0.00000000  0.00000000  -0.00000000  0.00000000   0.99548268  0.04323918
1.041875e+09   0.99548848  0.04319846  -0.00000000  0.00000000  -0.00000000  0.00000000   0.99548848  0.04319846
1.042000e+09   0.99549427  0.04315779  -0.00000000  0.00000000  -0.00000000  0.00000000   0.99549427  0.04315779
1.042125e+09   0.99550004  0.04311717  -0.00000000  0.00000000  -0.00000000  0.00000000   0.99550004  0.04311717
1.042250e+09   0.99550580  0.04307660  -0.00000000  0.00000000  -0.00000000  0.00000000   0.99550580  0.04307660
1.042375e+09   0.99551155  0.04303607  -0.00000000  0.00000000  -0.00000000  0.00000000   0.99551155  0.04303607
1.042500e+09   0.99551729  0.04299560  -0.00000000  0.00000000  -0.00000000  0.00000000   0.99551729  0.04299560
1.042625e+09   0.99552301  0.04295517  -0.00000000  0.00000000  -0.00000000  0.00000000   0.99552301  0.04295517
1.042750e+09   0.99552872  0.04291479  -0.00000000  0.00000000  -0.00000000  0.00000000   0.99552872  0.04291479
1.042875e+09   0.99553442  0.04287447  -0.00000000  0.00000000  -0.00000000  0.00000000   0.99553442  0.04287447
1.043000e+09   0.99554011  0.04283419  -0.00000000  0.00000000  -0.00000000  0.00000000   0.99554011  0.04283419
1.043125e+09   0.99554578  0.04279395  -0.00000000  0.00000000  -0.00000000  0.00000000   0.99554578  0.04279395
1.043250e+09   0.99555144  0.04275377  -0.00000000  0.00000000  -0.00000000  0.00000000   0.99555144  0.04275377
1.043375e+09   0.99555709  0.04271364  -0.00000000  0.00000000  -0.00000000  0.00000000   0.99555709  0.04271364
1.043500e+09   0.99556273  0.04267355  -0.00000000  0.00000000  -0.00000000  0.00000000   0.99556273  0.04267355
1.043625e+09   0.99556836  0.04263351  -0.00000000  0.00000000  -0.00000000  0.00000000   0.99556836  0.04263351
1.043750e+09   0.99557397  0.04259352  -0.00000000  0.00000000  -0.00000000  0.00000000   0.99557397  0.04259352
1.043875e+09   0.99557958  0.04255358  -0.00000000  0.00000000  -0.00000000  0.00000000   0.99557958  0.04255358
1.044000e+09   0.99558517  0.04251369  -0.00000000  0.00000000  -0.00000000  0.00000000   0.99558517  0.04251369
1.044125e+09   0.99559074  0.04247384  -0.00000000  0.00000000  -0.00000000  0.00000000   0.99559074  0.04247384
1.044250e+09   0.99559631  0.04243404  -0.00000000  0.00000000  -0.00000000  0.00000000   0.99559631  0.04243404
1.044375e+09   0.99560187  0.04239429  -0.00000000  0.00000000  -0.00000000  0.00000000   0.99560187  0.04239429
1.044500e+09   0.99560741  0.04235459  -0.00000000  0.00000000  -0.00000000  0.00000000   0.99560741  0.04235459
1.044625e+09   0.99561294  0.04231493  -0.00000000  0.00000000  -0.00000000  0.00000000   0.99561294  0.04231493
1.044750e+09   0.99561846  0.04227533  -0.00000000  0.00000000  -0.00000000  0.00000000   0.99561846  0.04227533
1.044875e+09   0.99562397  0.04223576  -0.00000000  0.00000000  -0.00000000  0.00000000   0.99562397  0.04223576
1.045000e+09   0.99562946  0.04219625  -0.00000000  0.00000000  -0.00000000  0.00000000   0.99562946  0.04219625
1.045125e+09   0.99563495  0.04215678  -0.00000000  0.00000000  -0.00000000  0.00000000   0.99563495  0.04215678
1.045250e+09   0.99564042  0.04211736  -0.00000000  0.00000000  -0.00000000  0.00000000   0.99564042  0.04211736
1.045375e+09   0.99564588  0.04207799  -0.00000000  0.00000000  -0.00000000  0.00000000   0.99564588  0.04207799
1.045500e+09   0.99565133  0.04203866  -0.00000000  0.00000000  -0.00000000  0.00000000   0.99565133  0.04203866
1.045625e+09   0.99565677  0.04199938  -0.00000000  0.00000000  -0.00000000  0.00000000   0.99565677  0.04199938
1.045750e+09   0.99566219  0.04196014  -0.00000000  0.00000000  -0.00000000  0.00000000   0.99566219  0.04196014
1.045875e+09   0.99566761  0.04192096  -0.00000000  0.00000000  -0.00000000  0.00000000   0.99566761  0.04192096
1.046000e+09   0.99567301  0.04188181  -0.00000000  0.00000000  -0.00000000  0.00000000   0.99567301  0.04188181
1.046125e+09   0.99567840  0.04184272  -0.00000000  0.00000000  -0.00000000  0.00000000   0.99567840  0.04184272
1.046250e+09   0.99568379  0.04180367  -0.00000000  0.00000000  -0.00000000  0.00000000   0.99568379  0.04180367
1.046375e+09   0.99568915  0.04176467  -0.00000000  0.00000000  -0.00000000  0.00000000   0.99568915  0.04176467
1.046500e+09   0.99569451  0.04172571  -0.00000000  0.00000000  -0.00000000  0.00000000   0.99569451  0.04172571
1.046625e+09   0.99569986  0.04168680  -0.00000000  0.00000000  -0.00000000  0.00000000   0.99569986  0.04168680
1.046750e+09   0.99570519  0.04164793  -0.00000000  0.00000000  -0.00000000  0.00000000   0.99570519  0.04164793
1.046875e+09   0.99571052  0.04160911  -0.00000000  0.00000000  -0.00000000  0.00000000   0.99571052  0.04160911
1.047000e+09   0.99571583  0.04157034  -0.00000000  0.00000000  -0.00000000  0.00000000   0.99571583  0.04157034
1.047125e+09   0.99572113  0.04153161  -0.00000000  0.00000000  -0.00000000  0.00000000   0.99572113  0.04153161
1.047250e+09   0.99572642  0.04149292  -0.00000000  0.00000000  -0.00000000  0.00000000   0.99572642  0.04149292
1.047375e+09   0.99573170  0.04145428  -0.00000000  0.00000000  -0.00000000  0.00000000   0.99573170  0.04145428
1.047500e+09   0.99573697  0.04141569  -0.00000000  0.00000000  -0.00000000  0.00000000   0.99573697  0.04141569
1.047625e+09   0.99574223  0.04137714  -0.00000000  0.00000000  -0.00000000  0.00000000   0.99574223  0.04137714
1.047750e+09   0.99574748  0.04133864  -0.00000000  0.00000000  -0.00000000  0.00000000   0.99574748  0.04133864
1.047875e+09   0.99575271  0.04130018  -0.00000000  0.00000000  -0.00000000  0.00000000   0.99575271  0.04130018
1.048000e+09   0.99575794  0.04126176  -0.00000000  0.00000000  -0.00000000  0.00000000   0.99575794  0.04126176
1.048125e+09   0.99576315  0.04122339  -0.00000000  0.00000000  -0.00000000  0.00000000   0.99576315  0.04122339
1.048250e+09   0.99576835  0.04118507  -0.00000000  0.00000000  -0.00000000  0.00000000   0.99576835  0.04118507
1.048375e+09   0.99577355  0.04114679  -0.00000000  0.00000000  -0.00000000  0.00000000   0.99577355  0.04114679
1.048500e+09   0.99577873  0.04110855  -0.00000000  0.00000000  -0.00000000  0.00000000   0.99577873  0.04110855
1.048625e+09   0.99578390  0.04107036  -0.00000000  0.00000000  -0.00000000  0.00000000   0.99578390  0.04107036
1.048750e+09   0.99578906  0.04103221  -0.00000000  0.00000000  -0.00000000  0.00000000   0.99578906  0.04103221
1.048875e+09   0.99579420  0.04099411  -0.00000000  0.00000000  -0.00000000  0.00000000   0.99579420  0.04099411
1.049000e+09   0.99579934  0.04095605  -0.00000000  0.00000000  -0.00000000  0.00000000   0.99579934  0.04095605
1.049125e+09   0.99580447  0.04091803  -0.00000000  0.00000000  -0.00000000  0.00000000   0.99580447  0.04091803
1.049250e+09   0.99580959  0.04088006  -0.00000000  0.00000000  -0.00000000  0.00000000   0.99580959  0.04088006
1.049375e+09   0.99581469  0.04084213  -0.00000000  0.00000000  -0.00000000  0.00000000   0.99581469  0.04084213
1.049500e+09   0.99581979  0.04080425  -0.00000000  0.00000000  -0.00000000  0.00000000   0.99581979  0.04080425
1.049625e+09   0.99582487  0.04076641  -0.00000000  0.00000000  -0.00000000  0.00000000   0.99582487  0.04076641
1.049750e+09   0.99582995  0.04072861  -0.00000000  0.00000000  -0.00000000  0.00000000   0.99582995  0.04072861
1.049875e+09   0.99583501  0.04069086  -0.00000000  0.00000000  -0.00000000  0.00000000   0.99583501  0.04069086
1.050000e+09   0.99584006  0.04065315  -0.00000000  0.00000000  -0.00000000  0.00000000   0.99584006  0.04065315
